*SPEF "IEEE 1481-1998"
*DESIGN "sram_32x8_9T"
*DATE "generated by gen_spef.py"
*VENDOR "Magic VLSI 8.3 (gf180mcuD ext2spice, cthresh 0, extresist on)"
*PROGRAM "gen_spef.py"
*VERSION "1.0"
*DESIGN_FLOW "NAME_SCOPE LOCAL" "PIN_CAP NONE" "NO_SLEW"
*DIVIDER /
*DELIMITER :
*BUS_DELIMITER [ ]
*T_UNIT 1 NS
*C_UNIT 1 FF
*R_UNIT 1 OHM
*L_UNIT 1 HENRY

*NAME_MAP
*1 A[0]
*2 A[10]
*3 A[11]
*4 A[12]
*5 A[13]
*6 A[14]
*7 A[15]
*8 A[16]
*9 A[17]
*10 A[18]
*11 A[19]
*12 A[1]
*13 A[20]
*14 A[21]
*15 A[22]
*16 A[23]
*17 A[24]
*18 A[25]
*19 A[26]
*20 A[27]
*21 A[28]
*22 A[29]
*23 A[2]
*24 A[30]
*25 A[31]
*26 A[3]
*27 A[4]
*28 A[5]
*29 A[6]
*30 A[7]
*31 A[8]
*32 A[9]
*33 RBL[0]
*34 RBL[100]
*35 RBL[101]
*36 RBL[102]
*37 RBL[103]
*38 RBL[104]
*39 RBL[105]
*40 RBL[106]
*41 RBL[107]
*42 RBL[108]
*43 RBL[109]
*44 RBL[10]
*45 RBL[110]
*46 RBL[111]
*47 RBL[112]
*48 RBL[113]
*49 RBL[114]
*50 RBL[115]
*51 RBL[116]
*52 RBL[117]
*53 RBL[118]
*54 RBL[119]
*55 RBL[11]
*56 RBL[120]
*57 RBL[121]
*58 RBL[122]
*59 RBL[123]
*60 RBL[124]
*61 RBL[125]
*62 RBL[126]
*63 RBL[127]
*64 RBL[128]
*65 RBL[129]
*66 RBL[12]
*67 RBL[130]
*68 RBL[131]
*69 RBL[132]
*70 RBL[133]
*71 RBL[134]
*72 RBL[135]
*73 RBL[136]
*74 RBL[137]
*75 RBL[138]
*76 RBL[139]
*77 RBL[13]
*78 RBL[140]
*79 RBL[141]
*80 RBL[142]
*81 RBL[143]
*82 RBL[144]
*83 RBL[145]
*84 RBL[146]
*85 RBL[147]
*86 RBL[148]
*87 RBL[149]
*88 RBL[14]
*89 RBL[150]
*90 RBL[151]
*91 RBL[152]
*92 RBL[153]
*93 RBL[154]
*94 RBL[155]
*95 RBL[156]
*96 RBL[157]
*97 RBL[158]
*98 RBL[159]
*99 RBL[15]
*100 RBL[160]
*101 RBL[161]
*102 RBL[162]
*103 RBL[163]
*104 RBL[164]
*105 RBL[165]
*106 RBL[166]
*107 RBL[167]
*108 RBL[168]
*109 RBL[169]
*110 RBL[16]
*111 RBL[170]
*112 RBL[171]
*113 RBL[172]
*114 RBL[173]
*115 RBL[174]
*116 RBL[175]
*117 RBL[176]
*118 RBL[177]
*119 RBL[178]
*120 RBL[179]
*121 RBL[17]
*122 RBL[180]
*123 RBL[181]
*124 RBL[182]
*125 RBL[183]
*126 RBL[184]
*127 RBL[185]
*128 RBL[186]
*129 RBL[187]
*130 RBL[188]
*131 RBL[189]
*132 RBL[18]
*133 RBL[190]
*134 RBL[191]
*135 RBL[192]
*136 RBL[193]
*137 RBL[194]
*138 RBL[195]
*139 RBL[196]
*140 RBL[197]
*141 RBL[198]
*142 RBL[199]
*143 RBL[19]
*144 RBL[1]
*145 RBL[200]
*146 RBL[201]
*147 RBL[202]
*148 RBL[203]
*149 RBL[204]
*150 RBL[205]
*151 RBL[206]
*152 RBL[207]
*153 RBL[208]
*154 RBL[209]
*155 RBL[20]
*156 RBL[210]
*157 RBL[211]
*158 RBL[212]
*159 RBL[213]
*160 RBL[214]
*161 RBL[215]
*162 RBL[216]
*163 RBL[217]
*164 RBL[218]
*165 RBL[219]
*166 RBL[21]
*167 RBL[220]
*168 RBL[221]
*169 RBL[222]
*170 RBL[223]
*171 RBL[224]
*172 RBL[225]
*173 RBL[226]
*174 RBL[227]
*175 RBL[228]
*176 RBL[229]
*177 RBL[22]
*178 RBL[230]
*179 RBL[231]
*180 RBL[232]
*181 RBL[233]
*182 RBL[234]
*183 RBL[235]
*184 RBL[236]
*185 RBL[237]
*186 RBL[238]
*187 RBL[239]
*188 RBL[23]
*189 RBL[240]
*190 RBL[241]
*191 RBL[242]
*192 RBL[243]
*193 RBL[244]
*194 RBL[245]
*195 RBL[246]
*196 RBL[247]
*197 RBL[248]
*198 RBL[249]
*199 RBL[24]
*200 RBL[250]
*201 RBL[251]
*202 RBL[252]
*203 RBL[253]
*204 RBL[254]
*205 RBL[255]
*206 RBL[25]
*207 RBL[26]
*208 RBL[27]
*209 RBL[28]
*210 RBL[29]
*211 RBL[2]
*212 RBL[30]
*213 RBL[31]
*214 RBL[32]
*215 RBL[33]
*216 RBL[34]
*217 RBL[35]
*218 RBL[36]
*219 RBL[37]
*220 RBL[38]
*221 RBL[39]
*222 RBL[3]
*223 RBL[40]
*224 RBL[41]
*225 RBL[42]
*226 RBL[43]
*227 RBL[44]
*228 RBL[45]
*229 RBL[46]
*230 RBL[47]
*231 RBL[48]
*232 RBL[49]
*233 RBL[4]
*234 RBL[50]
*235 RBL[51]
*236 RBL[52]
*237 RBL[53]
*238 RBL[54]
*239 RBL[55]
*240 RBL[56]
*241 RBL[57]
*242 RBL[58]
*243 RBL[59]
*244 RBL[5]
*245 RBL[60]
*246 RBL[61]
*247 RBL[62]
*248 RBL[63]
*249 RBL[64]
*250 RBL[65]
*251 RBL[66]
*252 RBL[67]
*253 RBL[68]
*254 RBL[69]
*255 RBL[6]
*256 RBL[70]
*257 RBL[71]
*258 RBL[72]
*259 RBL[73]
*260 RBL[74]
*261 RBL[75]
*262 RBL[76]
*263 RBL[77]
*264 RBL[78]
*265 RBL[79]
*266 RBL[7]
*267 RBL[80]
*268 RBL[81]
*269 RBL[82]
*270 RBL[83]
*271 RBL[84]
*272 RBL[85]
*273 RBL[86]
*274 RBL[87]
*275 RBL[88]
*276 RBL[89]
*277 RBL[8]
*278 RBL[90]
*279 RBL[91]
*280 RBL[92]
*281 RBL[93]
*282 RBL[94]
*283 RBL[95]
*284 RBL[96]
*285 RBL[97]
*286 RBL[98]
*287 RBL[99]
*288 RBL[9]
*289 WBLB[0]
*290 WBLB[1]
*291 WBLB[2]
*292 WBLB[3]
*293 WBLB[4]
*294 WBLB[5]
*295 WBLB[6]
*296 WBLB[7]
*297 WBL[0]
*298 WBL[1]
*299 WBL[2]
*300 WBL[3]
*301 WBL[4]
*302 WBL[5]
*303 WBL[6]
*304 WBL[7]
*305 WL[0]
*306 WL[10]
*307 WL[11]
*308 WL[12]
*309 WL[13]
*310 WL[14]
*311 WL[15]
*312 WL[16]
*313 WL[17]
*314 WL[18]
*315 WL[19]
*316 WL[1]
*317 WL[20]
*318 WL[21]
*319 WL[22]
*320 WL[23]
*321 WL[24]
*322 WL[25]
*323 WL[26]
*324 WL[27]
*325 WL[28]
*326 WL[29]
*327 WL[2]
*328 WL[30]
*329 WL[31]
*330 WL[3]
*331 WL[4]
*332 WL[5]
*333 WL[6]
*334 WL[7]
*335 WL[8]
*336 WL[9]
*337 a_2067_10377\#
*338 a_2067_11473\#
*339 a_2067_12569\#
*340 a_2067_13665\#
*341 a_2067_14761\#
*342 a_2067_15857\#
*343 a_2067_1609\#
*344 a_2067_16953\#
*345 a_2067_18049\#
*346 a_2067_19145\#
*347 a_2067_20241\#
*348 a_2067_21337\#
*349 a_2067_22433\#
*350 a_2067_23529\#
*351 a_2067_24625\#
*352 a_2067_25721\#
*353 a_2067_26817\#
*354 a_2067_2705\#
*355 a_2067_27913\#
*356 a_2067_29009\#
*357 a_2067_30105\#
*358 a_2067_31201\#
*359 a_2067_32297\#
*360 a_2067_33393\#
*361 a_2067_34489\#
*362 a_2067_3801\#
*363 a_2067_4897\#
*364 a_2067_513\#
*365 a_2067_5993\#
*366 a_2067_7089\#
*367 a_2067_8185\#
*368 a_2067_9281\#
*369 a_2098_1019\#
*370 a_2098_10883\#
*371 a_2098_11979\#
*372 a_2098_13075\#
*373 a_2098_14171\#
*374 a_2098_15267\#
*375 a_2098_16363\#
*376 a_2098_17459\#
*377 a_2098_18555\#
*378 a_2098_19651\#
*379 a_2098_20747\#
*380 a_2098_2115\#
*381 a_2098_21843\#
*382 a_2098_22939\#
*383 a_2098_24035\#
*384 a_2098_25131\#
*385 a_2098_26227\#
*386 a_2098_27323\#
*387 a_2098_28419\#
*388 a_2098_29515\#
*389 a_2098_30611\#
*390 a_2098_31707\#
*391 a_2098_3211\#
*392 a_2098_32803\#
*393 a_2098_33899\#
*394 a_2098_34995\#
*395 a_2098_4307\#
*396 a_2098_5403\#
*397 a_2098_6499\#
*398 a_2098_7595\#
*399 a_2098_8691\#
*400 a_2098_9787\#
*401 a_2311_35171\#
*402 a_2689_10377\#
*403 a_2689_11473\#
*404 a_2689_12569\#
*405 a_2689_13665\#
*406 a_2689_14761\#
*407 a_2689_15857\#
*408 a_2689_1609\#
*409 a_2689_16953\#
*410 a_2689_18049\#
*411 a_2689_19145\#
*412 a_2689_20241\#
*413 a_2689_21337\#
*414 a_2689_22433\#
*415 a_2689_23529\#
*416 a_2689_24625\#
*417 a_2689_25721\#
*418 a_2689_26817\#
*419 a_2689_2705\#
*420 a_2689_27913\#
*421 a_2689_29009\#
*422 a_2689_30105\#
*423 a_2689_31201\#
*424 a_2689_32297\#
*425 a_2689_33393\#
*426 a_2689_34489\#
*427 a_2689_3801\#
*428 a_2689_4897\#
*429 a_2689_513\#
*430 a_2689_5993\#
*431 a_2689_7089\#
*432 a_2689_8185\#
*433 a_2689_9281\#
*434 a_2720_1019\#
*435 a_2720_10883\#
*436 a_2720_11979\#
*437 a_2720_13075\#
*438 a_2720_14171\#
*439 a_2720_15267\#
*440 a_2720_16363\#
*441 a_2720_17459\#
*442 a_2720_18555\#
*443 a_2720_19651\#
*444 a_2720_20747\#
*445 a_2720_2115\#
*446 a_2720_21843\#
*447 a_2720_22939\#
*448 a_2720_24035\#
*449 a_2720_25131\#
*450 a_2720_26227\#
*451 a_2720_27323\#
*452 a_2720_28419\#
*453 a_2720_29515\#
*454 a_2720_30611\#
*455 a_2720_31707\#
*456 a_2720_3211\#
*457 a_2720_32803\#
*458 a_2720_33899\#
*459 a_2720_34995\#
*460 a_2720_4307\#
*461 a_2720_5403\#
*462 a_2720_6499\#
*463 a_2720_7595\#
*464 a_2720_8691\#
*465 a_2720_9787\#
*466 a_2933_35171\#
*467 a_3311_10377\#
*468 a_3311_11473\#
*469 a_3311_12569\#
*470 a_3311_13665\#
*471 a_3311_14761\#
*472 a_3311_15857\#
*473 a_3311_1609\#
*474 a_3311_16953\#
*475 a_3311_18049\#
*476 a_3311_19145\#
*477 a_3311_20241\#
*478 a_3311_21337\#
*479 a_3311_22433\#
*480 a_3311_23529\#
*481 a_3311_24625\#
*482 a_3311_25721\#
*483 a_3311_26817\#
*484 a_3311_2705\#
*485 a_3311_27913\#
*486 a_3311_29009\#
*487 a_3311_30105\#
*488 a_3311_31201\#
*489 a_3311_32297\#
*490 a_3311_33393\#
*491 a_3311_34489\#
*492 a_3311_3801\#
*493 a_3311_4897\#
*494 a_3311_513\#
*495 a_3311_5993\#
*496 a_3311_7089\#
*497 a_3311_8185\#
*498 a_3311_9281\#
*499 a_3342_1019\#
*500 a_3342_10883\#
*501 a_3342_11979\#
*502 a_3342_13075\#
*503 a_3342_14171\#
*504 a_3342_15267\#
*505 a_3342_16363\#
*506 a_3342_17459\#
*507 a_3342_18555\#
*508 a_3342_19651\#
*509 a_3342_20747\#
*510 a_3342_2115\#
*511 a_3342_21843\#
*512 a_3342_22939\#
*513 a_3342_24035\#
*514 a_3342_25131\#
*515 a_3342_26227\#
*516 a_3342_27323\#
*517 a_3342_28419\#
*518 a_3342_29515\#
*519 a_3342_30611\#
*520 a_3342_31707\#
*521 a_3342_3211\#
*522 a_3342_32803\#
*523 a_3342_33899\#
*524 a_3342_34995\#
*525 a_3342_4307\#
*526 a_3342_5403\#
*527 a_3342_6499\#
*528 a_3342_7595\#
*529 a_3342_8691\#
*530 a_3342_9787\#
*531 a_3555_35171\#
*532 a_3933_10377\#
*533 a_3933_11473\#
*534 a_3933_12569\#
*535 a_3933_13665\#
*536 a_3933_14761\#
*537 a_3933_15857\#
*538 a_3933_1609\#
*539 a_3933_16953\#
*540 a_3933_18049\#
*541 a_3933_19145\#
*542 a_3933_20241\#
*543 a_3933_21337\#
*544 a_3933_22433\#
*545 a_3933_23529\#
*546 a_3933_24625\#
*547 a_3933_25721\#
*548 a_3933_26817\#
*549 a_3933_2705\#
*550 a_3933_27913\#
*551 a_3933_29009\#
*552 a_3933_30105\#
*553 a_3933_31201\#
*554 a_3933_32297\#
*555 a_3933_33393\#
*556 a_3933_34489\#
*557 a_3933_3801\#
*558 a_3933_4897\#
*559 a_3933_513\#
*560 a_3933_5993\#
*561 a_3933_7089\#
*562 a_3933_8185\#
*563 a_3933_9281\#
*564 a_3964_1019\#
*565 a_3964_10883\#
*566 a_3964_11979\#
*567 a_3964_13075\#
*568 a_3964_14171\#
*569 a_3964_15267\#
*570 a_3964_16363\#
*571 a_3964_17459\#
*572 a_3964_18555\#
*573 a_3964_19651\#
*574 a_3964_20747\#
*575 a_3964_2115\#
*576 a_3964_21843\#
*577 a_3964_22939\#
*578 a_3964_24035\#
*579 a_3964_25131\#
*580 a_3964_26227\#
*581 a_3964_27323\#
*582 a_3964_28419\#
*583 a_3964_29515\#
*584 a_3964_30611\#
*585 a_3964_31707\#
*586 a_3964_3211\#
*587 a_3964_32803\#
*588 a_3964_33899\#
*589 a_3964_34995\#
*590 a_3964_4307\#
*591 a_3964_5403\#
*592 a_3964_6499\#
*593 a_3964_7595\#
*594 a_3964_8691\#
*595 a_3964_9787\#
*596 a_4177_35171\#
*597 a_4555_10377\#
*598 a_4555_11473\#
*599 a_4555_12569\#
*600 a_4555_13665\#
*601 a_4555_14761\#
*602 a_4555_15857\#
*603 a_4555_1609\#
*604 a_4555_16953\#
*605 a_4555_18049\#
*606 a_4555_19145\#
*607 a_4555_20241\#
*608 a_4555_21337\#
*609 a_4555_22433\#
*610 a_4555_23529\#
*611 a_4555_24625\#
*612 a_4555_25721\#
*613 a_4555_26817\#
*614 a_4555_2705\#
*615 a_4555_27913\#
*616 a_4555_29009\#
*617 a_4555_30105\#
*618 a_4555_31201\#
*619 a_4555_32297\#
*620 a_4555_33393\#
*621 a_4555_34489\#
*622 a_4555_3801\#
*623 a_4555_4897\#
*624 a_4555_513\#
*625 a_4555_5993\#
*626 a_4555_7089\#
*627 a_4555_8185\#
*628 a_4555_9281\#
*629 a_4586_1019\#
*630 a_4586_10883\#
*631 a_4586_11979\#
*632 a_4586_13075\#
*633 a_4586_14171\#
*634 a_4586_15267\#
*635 a_4586_16363\#
*636 a_4586_17459\#
*637 a_4586_18555\#
*638 a_4586_19651\#
*639 a_4586_20747\#
*640 a_4586_2115\#
*641 a_4586_21843\#
*642 a_4586_22939\#
*643 a_4586_24035\#
*644 a_4586_25131\#
*645 a_4586_26227\#
*646 a_4586_27323\#
*647 a_4586_28419\#
*648 a_4586_29515\#
*649 a_4586_30611\#
*650 a_4586_31707\#
*651 a_4586_3211\#
*652 a_4586_32803\#
*653 a_4586_33899\#
*654 a_4586_34995\#
*655 a_4586_4307\#
*656 a_4586_5403\#
*657 a_4586_6499\#
*658 a_4586_7595\#
*659 a_4586_8691\#
*660 a_4586_9787\#
*661 a_4799_35171\#
*662 a_5177_10377\#
*663 a_5177_11473\#
*664 a_5177_12569\#
*665 a_5177_13665\#
*666 a_5177_14761\#
*667 a_5177_15857\#
*668 a_5177_1609\#
*669 a_5177_16953\#
*670 a_5177_18049\#
*671 a_5177_19145\#
*672 a_5177_20241\#
*673 a_5177_21337\#
*674 a_5177_22433\#
*675 a_5177_23529\#
*676 a_5177_24625\#
*677 a_5177_25721\#
*678 a_5177_26817\#
*679 a_5177_2705\#
*680 a_5177_27913\#
*681 a_5177_29009\#
*682 a_5177_30105\#
*683 a_5177_31201\#
*684 a_5177_32297\#
*685 a_5177_33393\#
*686 a_5177_34489\#
*687 a_5177_3801\#
*688 a_5177_4897\#
*689 a_5177_513\#
*690 a_5177_5993\#
*691 a_5177_7089\#
*692 a_5177_8185\#
*693 a_5177_9281\#
*694 a_5208_1019\#
*695 a_5208_10883\#
*696 a_5208_11979\#
*697 a_5208_13075\#
*698 a_5208_14171\#
*699 a_5208_15267\#
*700 a_5208_16363\#
*701 a_5208_17459\#
*702 a_5208_18555\#
*703 a_5208_19651\#
*704 a_5208_20747\#
*705 a_5208_2115\#
*706 a_5208_21843\#
*707 a_5208_22939\#
*708 a_5208_24035\#
*709 a_5208_25131\#
*710 a_5208_26227\#
*711 a_5208_27323\#
*712 a_5208_28419\#
*713 a_5208_29515\#
*714 a_5208_30611\#
*715 a_5208_31707\#
*716 a_5208_3211\#
*717 a_5208_32803\#
*718 a_5208_33899\#
*719 a_5208_34995\#
*720 a_5208_4307\#
*721 a_5208_5403\#
*722 a_5208_6499\#
*723 a_5208_7595\#
*724 a_5208_8691\#
*725 a_5208_9787\#
*726 a_5421_35171\#
*727 a_5799_10377\#
*728 a_5799_11473\#
*729 a_5799_12569\#
*730 a_5799_13665\#
*731 a_5799_14761\#
*732 a_5799_15857\#
*733 a_5799_1609\#
*734 a_5799_16953\#
*735 a_5799_18049\#
*736 a_5799_19145\#
*737 a_5799_20241\#
*738 a_5799_21337\#
*739 a_5799_22433\#
*740 a_5799_23529\#
*741 a_5799_24625\#
*742 a_5799_25721\#
*743 a_5799_26817\#
*744 a_5799_2705\#
*745 a_5799_27913\#
*746 a_5799_29009\#
*747 a_5799_30105\#
*748 a_5799_31201\#
*749 a_5799_32297\#
*750 a_5799_33393\#
*751 a_5799_34489\#
*752 a_5799_3801\#
*753 a_5799_4897\#
*754 a_5799_513\#
*755 a_5799_5993\#
*756 a_5799_7089\#
*757 a_5799_8185\#
*758 a_5799_9281\#
*759 a_5830_1019\#
*760 a_5830_10883\#
*761 a_5830_11979\#
*762 a_5830_13075\#
*763 a_5830_14171\#
*764 a_5830_15267\#
*765 a_5830_16363\#
*766 a_5830_17459\#
*767 a_5830_18555\#
*768 a_5830_19651\#
*769 a_5830_20747\#
*770 a_5830_2115\#
*771 a_5830_21843\#
*772 a_5830_22939\#
*773 a_5830_24035\#
*774 a_5830_25131\#
*775 a_5830_26227\#
*776 a_5830_27323\#
*777 a_5830_28419\#
*778 a_5830_29515\#
*779 a_5830_30611\#
*780 a_5830_31707\#
*781 a_5830_3211\#
*782 a_5830_32803\#
*783 a_5830_33899\#
*784 a_5830_34995\#
*785 a_5830_4307\#
*786 a_5830_5403\#
*787 a_5830_6499\#
*788 a_5830_7595\#
*789 a_5830_8691\#
*790 a_5830_9787\#
*791 a_6043_35171\#
*792 a_6421_10377\#
*793 a_6421_11473\#
*794 a_6421_12569\#
*795 a_6421_13665\#
*796 a_6421_14761\#
*797 a_6421_15857\#
*798 a_6421_1609\#
*799 a_6421_16953\#
*800 a_6421_18049\#
*801 a_6421_19145\#
*802 a_6421_20241\#
*803 a_6421_21337\#
*804 a_6421_22433\#
*805 a_6421_23529\#
*806 a_6421_24625\#
*807 a_6421_25721\#
*808 a_6421_26817\#
*809 a_6421_2705\#
*810 a_6421_27913\#
*811 a_6421_29009\#
*812 a_6421_30105\#
*813 a_6421_31201\#
*814 a_6421_32297\#
*815 a_6421_33393\#
*816 a_6421_34489\#
*817 a_6421_3801\#
*818 a_6421_4897\#
*819 a_6421_513\#
*820 a_6421_5993\#
*821 a_6421_7089\#
*822 a_6421_8185\#
*823 a_6421_9281\#
*824 a_6452_1019\#
*825 a_6452_10883\#
*826 a_6452_11979\#
*827 a_6452_13075\#
*828 a_6452_14171\#
*829 a_6452_15267\#
*830 a_6452_16363\#
*831 a_6452_17459\#
*832 a_6452_18555\#
*833 a_6452_19651\#
*834 a_6452_20747\#
*835 a_6452_2115\#
*836 a_6452_21843\#
*837 a_6452_22939\#
*838 a_6452_24035\#
*839 a_6452_25131\#
*840 a_6452_26227\#
*841 a_6452_27323\#
*842 a_6452_28419\#
*843 a_6452_29515\#
*844 a_6452_30611\#
*845 a_6452_31707\#
*846 a_6452_3211\#
*847 a_6452_32803\#
*848 a_6452_33899\#
*849 a_6452_34995\#
*850 a_6452_4307\#
*851 a_6452_5403\#
*852 a_6452_6499\#
*853 a_6452_7595\#
*854 a_6452_8691\#
*855 a_6452_9787\#
*856 a_6665_35171\#

*PORTS
*33 O
*144 O
*211 O
*222 O
*233 O
*244 O
*255 O
*266 O
*277 O
*288 O
*44 O
*55 O
*66 O
*77 O
*88 O
*99 O
*110 O
*121 O
*132 O
*143 O
*155 O
*166 O
*177 O
*188 O
*199 O
*206 O
*207 O
*208 O
*209 O
*210 O
*212 O
*213 O
*214 O
*215 O
*216 O
*217 O
*218 O
*219 O
*220 O
*221 O
*223 O
*224 O
*225 O
*226 O
*227 O
*228 O
*229 O
*230 O
*231 O
*232 O
*234 O
*235 O
*236 O
*237 O
*238 O
*239 O
*240 O
*241 O
*242 O
*243 O
*245 O
*246 O
*247 O
*248 O
*249 O
*250 O
*251 O
*252 O
*253 O
*254 O
*256 O
*257 O
*258 O
*259 O
*260 O
*261 O
*262 O
*263 O
*264 O
*265 O
*267 O
*268 O
*269 O
*270 O
*271 O
*272 O
*273 O
*274 O
*275 O
*276 O
*278 O
*279 O
*280 O
*281 O
*282 O
*283 O
*284 O
*285 O
*286 O
*287 O
*34 O
*35 O
*36 O
*37 O
*38 O
*39 O
*40 O
*41 O
*42 O
*43 O
*45 O
*46 O
*47 O
*48 O
*49 O
*50 O
*51 O
*52 O
*53 O
*54 O
*56 O
*57 O
*58 O
*59 O
*60 O
*61 O
*62 O
*63 O
*64 O
*65 O
*67 O
*68 O
*69 O
*70 O
*71 O
*72 O
*73 O
*74 O
*75 O
*76 O
*78 O
*79 O
*80 O
*81 O
*82 O
*83 O
*84 O
*85 O
*86 O
*87 O
*89 O
*90 O
*91 O
*92 O
*93 O
*94 O
*95 O
*96 O
*97 O
*98 O
*100 O
*101 O
*102 O
*103 O
*104 O
*105 O
*106 O
*107 O
*108 O
*109 O
*111 O
*112 O
*113 O
*114 O
*115 O
*116 O
*117 O
*118 O
*119 O
*120 O
*122 O
*123 O
*124 O
*125 O
*126 O
*127 O
*128 O
*129 O
*130 O
*131 O
*133 O
*134 O
*135 O
*136 O
*137 O
*138 O
*139 O
*140 O
*141 O
*142 O
*145 O
*146 O
*147 O
*148 O
*149 O
*150 O
*151 O
*152 O
*153 O
*154 O
*156 O
*157 O
*158 O
*159 O
*160 O
*161 O
*162 O
*163 O
*164 O
*165 O
*167 O
*168 O
*169 O
*170 O
*171 O
*172 O
*173 O
*174 O
*175 O
*176 O
*178 O
*179 O
*180 O
*181 O
*182 O
*183 O
*184 O
*185 O
*186 O
*187 O
*189 O
*190 O
*191 O
*192 O
*193 O
*194 O
*195 O
*196 O
*197 O
*198 O
*200 O
*201 O
*202 O
*203 O
*204 O
*205 O
*297 I
*298 I
*299 I
*300 I
*301 I
*302 I
*303 I
*304 I
*289 I
*290 I
*291 I
*292 I
*293 I
*294 I
*295 I
*296 I
*305 I
*316 I
*327 I
*330 I
*331 I
*332 I
*333 I
*334 I
*335 I
*336 I
*306 I
*307 I
*308 I
*309 I
*310 I
*311 I
*312 I
*313 I
*314 I
*315 I
*317 I
*318 I
*319 I
*320 I
*321 I
*322 I
*323 I
*324 I
*325 I
*326 I
*328 I
*329 I
*1 I
*12 I
*23 I
*26 I
*27 I
*28 I
*29 I
*30 I
*31 I
*32 I
*2 I
*3 I
*4 I
*5 I
*6 I
*7 I
*8 I
*9 I
*10 I
*11 I
*13 I
*14 I
*15 I
*16 I
*17 I
*18 I
*19 I
*20 I
*21 I
*22 I
*24 I
*25 I

*D_NET *33 1.719740
*CONN
*P *33 O
*CAP
1 *33 *305 0.015610
2 *33 *343 0.006390
3 *33 *380 0.006660
4 *33 *1 0.669880
5 *33 *144 0.504770
6 *33 *316 0.012770
7 *33 *211 0.001720
8 *33 *298 0.001940
9 *33 *297 0.168760
10 *33 *434 0.003200
11 *33 *277 0.007350
12 *33 *364 0.046710
13 *33 *369 0.109520
14 *33 *290 0.052200
15 *33 *289 0.112260
*END

*D_NET *144 2.372340
*CONN
*P *144 O
*CAP
16 *144 *288 0.008180
17 *144 *305 0.004810
18 *144 *408 0.007060
19 *144 *445 0.006860
20 *144 *1 0.712490
21 *144 *316 0.062190
22 *144 *211 0.787330
23 *144 *299 0.003720
24 *144 *298 0.232910
25 *144 *297 0.094580
26 *144 *499 0.003310
27 *144 *429 0.047190
28 *144 *434 0.107350
29 *144 *291 0.078030
30 *144 *290 0.116500
31 *144 *289 0.099830
*END

*D_NET *211 2.897830
*CONN
*P *211 O
*CAP
32 *211 *277 0.001810
33 *211 *292 0.103140
34 *211 *291 0.120710
35 *211 *290 0.086090
36 *211 *289 0.093630
37 *211 *288 0.001810
38 *211 *327 0.001690
39 *211 *44 0.010010
40 *211 *305 0.002710
41 *211 *473 0.006880
42 *211 *510 0.008640
43 *211 *445 0.001560
44 *211 *380 0.001970
45 *211 *1 0.673580
46 *211 *316 0.082970
47 *211 *222 1.073400
48 *211 *300 0.005500
49 *211 *564 0.003310
50 *211 *299 0.290640
51 *211 *494 0.047090
52 *211 *298 0.087260
53 *211 *297 0.086810
54 *211 *499 0.106620
*END

*D_NET *222 3.144880
*CONN
*P *222 O
*CAP
55 *222 *298 0.090850
56 *222 *297 0.085670
57 *222 *293 0.128210
58 *222 *277 0.471130
59 *222 *292 0.142840
60 *222 *291 0.099250
61 *222 *290 0.096280
62 *222 *289 0.093350
63 *222 *12 0.029380
64 *222 *288 0.158530
65 *222 *327 0.003320
66 *222 *44 0.132840
67 *222 *640 0.001130
68 *222 *305 0.002480
69 *222 *538 0.008160
70 *222 *575 0.012270
71 *222 *55 0.129480
72 *222 *473 0.001560
73 *222 *510 0.004070
74 *222 *408 0.001550
75 *222 *445 0.004010
76 *222 *343 0.002470
77 *222 *380 0.004190
78 *222 *1 0.671400
79 *222 *316 0.028370
80 *222 *629 0.003310
81 *222 *301 0.014030
82 *222 *233 0.124070
83 *222 *559 0.047070
84 *222 *300 0.354580
85 *222 *564 0.106510
86 *222 *299 0.092520
*END

*D_NET *233 3.528940
*CONN
*P *233 O
*CAP
87 *233 *624 0.046990
88 *233 *303 0.100080
89 *233 *629 0.105540
90 *233 *302 0.139520
91 *233 *301 0.195980
92 *233 *296 0.094380
93 *233 *244 0.856860
94 *233 *295 0.096960
95 *233 *294 0.309820
96 *233 *293 0.017750
97 *233 *798 0.002340
98 *233 *835 0.005430
99 *233 *12 0.025870
100 *233 *733 0.001690
101 *233 *770 0.004030
102 *233 *668 0.002160
103 *233 *327 0.002280
104 *233 *705 0.004790
105 *233 *603 0.006780
106 *233 *640 0.008630
107 *233 *305 0.003380
108 *233 *66 0.128860
109 *233 *77 0.134570
110 *233 *88 0.160330
111 *233 *99 0.253590
112 *233 *1 0.679600
113 *233 *316 0.032390
114 *233 *694 0.004030
115 *233 *304 0.104310
*END

*D_NET *244 2.222220
*CONN
*P *244 O
*CAP
116 *244 *759 0.004250
117 *244 *689 0.046990
118 *244 *694 0.105540
119 *244 *304 0.094960
120 *244 *303 0.118680
121 *244 *302 0.163640
122 *244 *296 0.086270
123 *244 *295 0.243680
124 *244 *294 0.012250
125 *244 *255 0.571330
126 *244 *835 0.001560
127 *244 *12 0.001070
128 *244 *770 0.001530
129 *244 *266 0.001720
130 *244 *668 0.006440
131 *244 *705 0.007160
132 *244 *305 0.003560
133 *244 *77 0.010040
134 *244 *88 0.001810
135 *244 *99 0.001810
136 *244 *1 0.682900
137 *244 *316 0.055030
*END

*D_NET *255 1.681010
*CONN
*P *255 O
*CAP
138 *255 *316 0.021070
139 *255 *819 0.001750
140 *255 *824 0.004900
141 *255 *754 0.046990
142 *255 *759 0.105540
143 *255 *304 0.128710
144 *255 *303 0.130840
145 *255 *296 0.190400
146 *255 *295 0.008990
147 *255 *12 0.001240
148 *255 *733 0.006390
149 *255 *770 0.006750
150 *255 *266 0.289160
151 *255 *305 0.003970
152 *255 *88 0.008200
153 *255 *1 0.726110
*END

*D_NET *266 1.048470
*CONN
*P *266 O
*CAP
154 *266 *99 0.007350
155 *266 *1 0.761960
156 *266 *316 0.007220
157 *266 *819 0.046630
158 *266 *824 0.105940
159 *266 *304 0.099220
160 *266 *296 0.005720
161 *266 *798 0.006390
162 *266 *835 0.006660
163 *266 *305 0.001380
*END

*D_NET *277 1.673590
*CONN
*P *277 O
*CAP
164 *277 *391 0.006660
165 *277 *298 0.001940
166 *277 *297 0.152040
167 *277 *290 0.052200
168 *277 *289 0.096600
169 *277 *12 0.669880
170 *277 *288 0.504770
171 *277 *327 0.012770
172 *277 *44 0.001720
173 *277 *445 0.003200
174 *277 *343 0.046500
175 *277 *380 0.108310
176 *277 *110 0.007350
177 *277 *316 0.003260
178 *277 *354 0.006390
*END

*D_NET *288 2.351060
*CONN
*P *288 O
*CAP
179 *288 *419 0.007060
180 *288 *456 0.006860
181 *288 *316 0.002740
182 *288 *299 0.003720
183 *288 *298 0.220920
184 *288 *297 0.094290
185 *288 *291 0.078030
186 *288 *290 0.111170
187 *288 *289 0.099530
188 *288 *12 0.712490
189 *288 *327 0.062190
190 *288 *44 0.787330
191 *288 *510 0.003310
192 *288 *408 0.047030
193 *288 *445 0.106210
194 *288 *121 0.008180
*END

*D_NET *44 2.880610
*CONN
*P *44 O
*CAP
195 *44 *121 0.001810
196 *44 *484 0.006880
197 *44 *330 0.001690
198 *44 *521 0.008640
199 *44 *132 0.010010
200 *44 *456 0.001560
201 *44 *316 0.001060
202 *44 *391 0.001970
203 *44 *300 0.005500
204 *44 *299 0.279760
205 *44 *298 0.087060
206 *44 *297 0.086610
207 *44 *292 0.103140
208 *44 *291 0.117990
209 *44 *290 0.085900
210 *44 *289 0.093430
211 *44 *12 0.673580
212 *44 *327 0.082970
213 *44 *575 0.003310
214 *44 *55 1.073400
215 *44 *473 0.046980
216 *44 *510 0.105550
217 *44 *110 0.001810
*END

*D_NET *55 3.130840
*CONN
*P *55 O
*CAP
218 *55 *110 0.471130
219 *55 *651 0.001130
220 *55 *23 0.029380
221 *55 *121 0.158530
222 *55 *549 0.008160
223 *55 *586 0.012270
224 *55 *484 0.001560
225 *55 *330 0.003320
226 *55 *521 0.004070
227 *55 *132 0.132840
228 *55 *419 0.001550
229 *55 *456 0.004010
230 *55 *316 0.001060
231 *55 *354 0.002470
232 *55 *391 0.004190
233 *55 *143 0.129480
234 *55 *301 0.014030
235 *55 *300 0.344360
236 *55 *299 0.092520
237 *55 *298 0.090850
238 *55 *297 0.085670
239 *55 *293 0.128210
240 *55 *292 0.141530
241 *55 *291 0.099250
242 *55 *290 0.096280
243 *55 *289 0.093350
244 *55 *12 0.671400
245 *55 *327 0.028370
246 *55 *640 0.003310
247 *55 *538 0.046990
248 *55 *575 0.105500
249 *55 *66 0.124070
*END

*D_NET *66 3.519970
*CONN
*P *66 O
*CAP
250 *66 *809 0.002340
251 *66 *846 0.005430
252 *66 *77 0.856860
253 *66 *744 0.001690
254 *66 *781 0.004030
255 *66 *679 0.002160
256 *66 *716 0.004790
257 *66 *614 0.006780
258 *66 *651 0.008630
259 *66 *23 0.025870
260 *66 *330 0.002280
261 *66 *316 0.001680
262 *66 *155 0.128860
263 *66 *304 0.104310
264 *66 *303 0.100080
265 *66 *302 0.138060
266 *66 *301 0.195500
267 *66 *166 0.134570
268 *66 *296 0.094380
269 *66 *295 0.096960
270 *66 *177 0.160330
271 *66 *294 0.305190
272 *66 *293 0.017660
273 *66 *188 0.253590
274 *66 *12 0.679600
275 *66 *327 0.032390
276 *66 *705 0.003500
277 *66 *603 0.046990
278 *66 *640 0.105460
*END

*D_NET *77 2.210030
*CONN
*P *77 O
*CAP
279 *77 *846 0.001560
280 *77 *781 0.001530
281 *77 *679 0.006440
282 *77 *716 0.007160
283 *77 *88 0.571330
284 *77 *23 0.001070
285 *77 *99 0.001720
286 *77 *316 0.001680
287 *77 *304 0.094760
288 *77 *303 0.115720
289 *77 *302 0.163170
290 *77 *166 0.010040
291 *77 *296 0.086070
292 *77 *295 0.238060
293 *77 *177 0.001810
294 *77 *294 0.012160
295 *77 *188 0.001810
296 *77 *12 0.682900
297 *77 *770 0.003560
298 *77 *668 0.046990
299 *77 *327 0.055030
300 *77 *705 0.105460
*END

*D_NET *88 1.663840
*CONN
*P *88 O
*CAP
301 *88 *744 0.006390
302 *88 *781 0.006750
303 *88 *23 0.001240
304 *88 *99 0.289160
305 *88 *316 0.001770
306 *88 *304 0.123020
307 *88 *303 0.130360
308 *88 *296 0.182880
309 *88 *295 0.008900
310 *88 *177 0.008200
311 *88 *798 0.001550
312 *88 *835 0.003990
313 *88 *12 0.726110
314 *88 *733 0.046990
315 *88 *770 0.105460
316 *88 *327 0.021070
*END

*D_NET *99 1.046440
*CONN
*P *99 O
*CAP
317 *99 *327 0.007220
318 *99 *809 0.006390
319 *99 *846 0.006660
320 *99 *304 0.098740
321 *99 *296 0.005630
322 *99 *798 0.046630
323 *99 *188 0.007350
324 *99 *835 0.105860
325 *99 *12 0.761960
*END

*D_NET *110 1.673590
*CONN
*P *110 O
*CAP
326 *110 *23 0.669880
327 *110 *121 0.504770
328 *110 *330 0.012770
329 *110 *132 0.001720
330 *110 *456 0.003200
331 *110 *354 0.046500
332 *110 *391 0.108310
333 *110 *298 0.001940
334 *110 *199 0.007350
335 *110 *297 0.152040
336 *110 *362 0.006390
337 *110 *395 0.006660
338 *110 *290 0.052200
339 *110 *289 0.096600
340 *110 *327 0.003260
*END

*D_NET *121 2.351060
*CONN
*P *121 O
*CAP
341 *121 *23 0.712490
342 *121 *330 0.062190
343 *121 *521 0.003310
344 *121 *132 0.787330
345 *121 *419 0.047030
346 *121 *456 0.106210
347 *121 *299 0.003720
348 *121 *298 0.220920
349 *121 *297 0.094290
350 *121 *427 0.007060
351 *121 *460 0.006860
352 *121 *206 0.008180
353 *121 *291 0.078030
354 *121 *290 0.111170
355 *121 *289 0.099530
356 *121 *327 0.002740
*END

*D_NET *132 2.880610
*CONN
*P *132 O
*CAP
357 *132 *289 0.093430
358 *132 *331 0.001690
359 *132 *207 0.010010
360 *132 *327 0.001060
361 *132 *23 0.673580
362 *132 *586 0.003310
363 *132 *484 0.046980
364 *132 *330 0.082970
365 *132 *521 0.105550
366 *132 *143 1.073400
367 *132 *300 0.005500
368 *132 *299 0.279760
369 *132 *298 0.087060
370 *132 *199 0.001810
371 *132 *297 0.086610
372 *132 *492 0.006880
373 *132 *525 0.008640
374 *132 *460 0.001560
375 *132 *292 0.103140
376 *132 *206 0.001810
377 *132 *291 0.117990
378 *132 *395 0.001970
379 *132 *290 0.085900
*END

*D_NET *143 3.130840
*CONN
*P *143 O
*CAP
380 *143 *427 0.001550
381 *143 *293 0.128210
382 *143 *460 0.004010
383 *143 *26 0.029380
384 *143 *292 0.141530
385 *143 *206 0.158530
386 *143 *362 0.002470
387 *143 *291 0.099250
388 *143 *395 0.004190
389 *143 *290 0.096280
390 *143 *289 0.093350
391 *143 *331 0.003320
392 *143 *207 0.132840
393 *143 *327 0.001060
394 *143 *208 0.129480
395 *143 *651 0.003310
396 *143 *23 0.671400
397 *143 *549 0.046990
398 *143 *586 0.105500
399 *143 *330 0.028370
400 *143 *155 0.124070
401 *143 *301 0.014030
402 *143 *655 0.001130
403 *143 *300 0.344360
404 *143 *557 0.008160
405 *143 *299 0.092520
406 *143 *590 0.012270
407 *143 *298 0.090850
408 *143 *199 0.471130
409 *143 *297 0.085670
410 *143 *492 0.001560
411 *143 *525 0.004070
*END

*D_NET *155 3.519970
*CONN
*P *155 O
*CAP
412 *155 *296 0.094380
413 *155 *295 0.096960
414 *155 *294 0.305190
415 *155 *293 0.017660
416 *155 *26 0.025870
417 *155 *331 0.002280
418 *155 *327 0.001680
419 *155 *209 0.128860
420 *155 *210 0.134570
421 *155 *212 0.160330
422 *155 *716 0.003500
423 *155 *614 0.046990
424 *155 *213 0.253590
425 *155 *651 0.105460
426 *155 *23 0.679600
427 *155 *330 0.032390
428 *155 *817 0.002340
429 *155 *850 0.005430
430 *155 *752 0.001690
431 *155 *785 0.004030
432 *155 *687 0.002160
433 *155 *304 0.104310
434 *155 *720 0.004790
435 *155 *303 0.100080
436 *155 *622 0.006780
437 *155 *302 0.138060
438 *155 *301 0.195500
439 *155 *655 0.008630
440 *155 *166 0.856860
*END

*D_NET *166 2.210030
*CONN
*P *166 O
*CAP
441 *166 *687 0.006440
442 *166 *304 0.094760
443 *166 *720 0.007160
444 *166 *303 0.115720
445 *166 *302 0.163170
446 *166 *296 0.086070
447 *166 *295 0.238060
448 *166 *177 0.571330
449 *166 *294 0.012160
450 *166 *26 0.001070
451 *166 *188 0.001720
452 *166 *327 0.001680
453 *166 *210 0.010040
454 *166 *212 0.001810
455 *166 *781 0.003560
456 *166 *679 0.046990
457 *166 *716 0.105460
458 *166 *213 0.001810
459 *166 *23 0.682900
460 *166 *330 0.055030
461 *166 *850 0.001560
462 *166 *785 0.001530
*END

*D_NET *177 1.663840
*CONN
*P *177 O
*CAP
463 *177 *752 0.006390
464 *177 *785 0.006750
465 *177 *304 0.123020
466 *177 *303 0.130360
467 *177 *296 0.182880
468 *177 *295 0.008900
469 *177 *26 0.001240
470 *177 *188 0.289160
471 *177 *327 0.001770
472 *177 *809 0.001550
473 *177 *846 0.003990
474 *177 *744 0.046990
475 *177 *212 0.008200
476 *177 *781 0.105460
477 *177 *23 0.726110
478 *177 *330 0.021070
*END

*D_NET *188 1.046440
*CONN
*P *188 O
*CAP
479 *188 *817 0.006390
480 *188 *850 0.006660
481 *188 *304 0.098740
482 *188 *296 0.005630
483 *188 *809 0.046630
484 *188 *846 0.105860
485 *188 *213 0.007350
486 *188 *23 0.761960
487 *188 *330 0.007220
*END

*D_NET *199 1.673590
*CONN
*P *199 O
*CAP
488 *199 *298 0.001940
489 *199 *297 0.152040
490 *199 *460 0.003200
491 *199 *26 0.669880
492 *199 *206 0.504770
493 *199 *362 0.046500
494 *199 *395 0.108310
495 *199 *290 0.052200
496 *199 *289 0.096600
497 *199 *331 0.012770
498 *199 *207 0.001720
499 *199 *363 0.006390
500 *199 *396 0.006660
501 *199 *214 0.007350
502 *199 *330 0.003260
*END

*D_NET *206 2.351060
*CONN
*P *206 O
*CAP
503 *206 *299 0.003720
504 *206 *298 0.220920
505 *206 *297 0.094290
506 *206 *525 0.003310
507 *206 *427 0.047030
508 *206 *460 0.106210
509 *206 *26 0.712490
510 *206 *291 0.078030
511 *206 *290 0.111170
512 *206 *289 0.099530
513 *206 *331 0.062190
514 *206 *207 0.787330
515 *206 *428 0.007060
516 *206 *461 0.006860
517 *206 *215 0.008180
518 *206 *330 0.002740
*END

*D_NET *207 2.880610
*CONN
*P *207 O
*CAP
519 *207 *330 0.001060
520 *207 *300 0.005500
521 *207 *299 0.279760
522 *207 *590 0.003310
523 *207 *298 0.087060
524 *207 *297 0.086610
525 *207 *492 0.046980
526 *207 *525 0.105550
527 *207 *26 0.673580
528 *207 *292 0.103140
529 *207 *291 0.117990
530 *207 *290 0.085900
531 *207 *289 0.093430
532 *207 *331 0.082970
533 *207 *208 1.073400
534 *207 *493 0.006880
535 *207 *526 0.008640
536 *207 *461 0.001560
537 *207 *396 0.001970
538 *207 *214 0.001810
539 *207 *215 0.001810
540 *207 *332 0.001690
541 *207 *216 0.010010
*END

*D_NET *208 3.130840
*CONN
*P *208 O
*CAP
542 *208 *332 0.003320
543 *208 *216 0.132840
544 *208 *330 0.001060
545 *208 *217 0.129480
546 *208 *301 0.014030
547 *208 *655 0.003310
548 *208 *300 0.344360
549 *208 *557 0.046990
550 *208 *299 0.092520
551 *208 *590 0.105500
552 *208 *298 0.090850
553 *208 *297 0.085670
554 *208 *293 0.128210
555 *208 *26 0.671400
556 *208 *292 0.141530
557 *208 *291 0.099250
558 *208 *290 0.096280
559 *208 *289 0.093350
560 *208 *331 0.028370
561 *208 *656 0.001130
562 *208 *558 0.008160
563 *208 *591 0.012270
564 *208 *209 0.124070
565 *208 *493 0.001560
566 *208 *526 0.004070
567 *208 *428 0.001550
568 *208 *461 0.004010
569 *208 *363 0.002470
570 *208 *396 0.004190
571 *208 *214 0.471130
572 *208 *27 0.029380
573 *208 *215 0.158530
*END

*D_NET *209 3.519970
*CONN
*P *209 O
*CAP
574 *209 *27 0.025870
575 *209 *332 0.002280
576 *209 *330 0.001680
577 *209 *218 0.128860
578 *209 *219 0.134570
579 *209 *304 0.104310
580 *209 *720 0.003500
581 *209 *303 0.100080
582 *209 *622 0.046990
583 *209 *302 0.138060
584 *209 *301 0.195500
585 *209 *655 0.105460
586 *209 *220 0.160330
587 *209 *296 0.094380
588 *209 *295 0.096960
589 *209 *294 0.305190
590 *209 *221 0.253590
591 *209 *293 0.017660
592 *209 *26 0.679600
593 *209 *818 0.002340
594 *209 *331 0.032390
595 *209 *851 0.005430
596 *209 *753 0.001690
597 *209 *786 0.004030
598 *209 *688 0.002160
599 *209 *721 0.004790
600 *209 *623 0.006780
601 *209 *656 0.008630
602 *209 *210 0.856860
*END

*D_NET *210 2.210030
*CONN
*P *210 O
*CAP
603 *210 *212 0.571330
604 *210 *27 0.001070
605 *210 *213 0.001720
606 *210 *330 0.001680
607 *210 *785 0.003560
608 *210 *687 0.046990
609 *210 *219 0.010040
610 *210 *304 0.094760
611 *210 *720 0.105460
612 *210 *303 0.115720
613 *210 *302 0.163170
614 *210 *220 0.001810
615 *210 *296 0.086070
616 *210 *295 0.238060
617 *210 *294 0.012160
618 *210 *221 0.001810
619 *210 *26 0.682900
620 *210 *331 0.055030
621 *210 *851 0.001560
622 *210 *786 0.001530
623 *210 *688 0.006440
624 *210 *721 0.007160
*END

*D_NET *212 1.663840
*CONN
*P *212 O
*CAP
625 *212 *27 0.001240
626 *212 *213 0.289160
627 *212 *330 0.001770
628 *212 *817 0.001550
629 *212 *850 0.003990
630 *212 *752 0.046990
631 *212 *785 0.105460
632 *212 *304 0.123020
633 *212 *303 0.130360
634 *212 *220 0.008200
635 *212 *296 0.182880
636 *212 *295 0.008900
637 *212 *26 0.726110
638 *212 *331 0.021070
639 *212 *753 0.006390
640 *212 *786 0.006750
*END

*D_NET *213 1.046440
*CONN
*P *213 O
*CAP
641 *213 *817 0.046630
642 *213 *850 0.105860
643 *213 *304 0.098740
644 *213 *296 0.005630
645 *213 *221 0.007350
646 *213 *26 0.761960
647 *213 *818 0.006390
648 *213 *331 0.007220
649 *213 *851 0.006660
*END

*D_NET *214 1.673590
*CONN
*P *214 O
*CAP
650 *214 *461 0.003200
651 *214 *363 0.046500
652 *214 *396 0.108310
653 *214 *27 0.669880
654 *214 *215 0.504770
655 *214 *332 0.012770
656 *214 *216 0.001720
657 *214 *365 0.006390
658 *214 *397 0.006660
659 *214 *223 0.007350
660 *214 *298 0.001940
661 *214 *297 0.152040
662 *214 *290 0.052200
663 *214 *289 0.096600
664 *214 *331 0.003260
*END

*D_NET *215 2.351060
*CONN
*P *215 O
*CAP
665 *215 *526 0.003310
666 *215 *428 0.047030
667 *215 *461 0.106210
668 *215 *27 0.712490
669 *215 *332 0.062190
670 *215 *216 0.787330
671 *215 *430 0.007060
672 *215 *462 0.006860
673 *215 *299 0.003720
674 *215 *298 0.220920
675 *215 *297 0.094290
676 *215 *224 0.008180
677 *215 *291 0.078030
678 *215 *290 0.111170
679 *215 *289 0.099530
680 *215 *331 0.002740
*END

*D_NET *216 2.880610
*CONN
*P *216 O
*CAP
681 *216 *591 0.003310
682 *216 *493 0.046980
683 *216 *526 0.105550
684 *216 *27 0.673580
685 *216 *332 0.082970
686 *216 *495 0.006880
687 *216 *527 0.008640
688 *216 *217 1.073400
689 *216 *462 0.001560
690 *216 *397 0.001970
691 *216 *223 0.001810
692 *216 *300 0.005500
693 *216 *299 0.279760
694 *216 *298 0.087060
695 *216 *297 0.086610
696 *216 *224 0.001810
697 *216 *333 0.001690
698 *216 *292 0.103140
699 *216 *291 0.117990
700 *216 *225 0.010010
701 *216 *290 0.085900
702 *216 *289 0.093430
703 *216 *331 0.001060
*END

*D_NET *217 3.130840
*CONN
*P *217 O
*CAP
704 *217 *290 0.096280
705 *217 *289 0.093350
706 *217 *331 0.001060
707 *217 *226 0.129480
708 *217 *656 0.003310
709 *217 *558 0.046990
710 *217 *591 0.105500
711 *217 *27 0.671400
712 *217 *332 0.028370
713 *217 *657 0.001130
714 *217 *560 0.008160
715 *217 *592 0.012270
716 *217 *495 0.001560
717 *217 *527 0.004070
718 *217 *430 0.001550
719 *217 *462 0.004010
720 *217 *365 0.002470
721 *217 *397 0.004190
722 *217 *218 0.124070
723 *217 *223 0.471130
724 *217 *301 0.014030
725 *217 *300 0.344360
726 *217 *299 0.092520
727 *217 *298 0.090850
728 *217 *297 0.085670
729 *217 *28 0.029380
730 *217 *224 0.158530
731 *217 *293 0.128210
732 *217 *333 0.003320
733 *217 *292 0.141530
734 *217 *291 0.099250
735 *217 *225 0.132840
*END

*D_NET *218 3.519970
*CONN
*P *218 O
*CAP
736 *218 *295 0.096960
737 *218 *294 0.305190
738 *218 *293 0.017660
739 *218 *333 0.002280
740 *218 *331 0.001680
741 *218 *721 0.003500
742 *218 *623 0.046990
743 *218 *227 0.128860
744 *218 *656 0.105460
745 *218 *228 0.134570
746 *218 *229 0.160330
747 *218 *820 0.002340
748 *218 *852 0.005430
749 *218 *755 0.001690
750 *218 *230 0.253590
751 *218 *787 0.004030
752 *218 *27 0.679600
753 *218 *690 0.002160
754 *218 *722 0.004790
755 *218 *625 0.006780
756 *218 *332 0.032390
757 *218 *657 0.008630
758 *218 *219 0.856860
759 *218 *304 0.104310
760 *218 *303 0.100080
761 *218 *302 0.138060
762 *218 *301 0.195500
763 *218 *28 0.025870
764 *218 *296 0.094380
*END

*D_NET *219 2.210030
*CONN
*P *219 O
*CAP
765 *219 *220 0.571330
766 *219 *28 0.001070
767 *219 *296 0.086070
768 *219 *295 0.238060
769 *219 *294 0.012160
770 *219 *221 0.001720
771 *219 *331 0.001680
772 *219 *786 0.003560
773 *219 *688 0.046990
774 *219 *721 0.105460
775 *219 *228 0.010040
776 *219 *229 0.001810
777 *219 *852 0.001560
778 *219 *230 0.001810
779 *219 *787 0.001530
780 *219 *27 0.682900
781 *219 *690 0.006440
782 *219 *722 0.007160
783 *219 *332 0.055030
784 *219 *304 0.094760
785 *219 *303 0.115720
786 *219 *302 0.163170
*END

*D_NET *220 1.663840
*CONN
*P *220 O
*CAP
787 *220 *304 0.123020
788 *220 *303 0.130360
789 *220 *28 0.001240
790 *220 *296 0.182880
791 *220 *295 0.008900
792 *220 *221 0.289160
793 *220 *818 0.001550
794 *220 *331 0.001770
795 *220 *851 0.003990
796 *220 *753 0.046990
797 *220 *786 0.105460
798 *220 *229 0.008200
799 *220 *755 0.006390
800 *220 *787 0.006750
801 *220 *27 0.726110
802 *220 *332 0.021070
*END

*D_NET *221 1.046440
*CONN
*P *221 O
*CAP
803 *221 *304 0.098740
804 *221 *296 0.005630
805 *221 *818 0.046630
806 *221 *851 0.105860
807 *221 *820 0.006390
808 *221 *852 0.006660
809 *221 *230 0.007350
810 *221 *27 0.761960
811 *221 *332 0.007220
*END

*D_NET *223 1.673590
*CONN
*P *223 O
*CAP
812 *223 *298 0.001940
813 *223 *297 0.152040
814 *223 *28 0.669880
815 *223 *224 0.504770
816 *223 *333 0.012770
817 *223 *225 0.001720
818 *223 *366 0.006390
819 *223 *290 0.052200
820 *223 *398 0.006660
821 *223 *289 0.096600
822 *223 *231 0.007350
823 *223 *332 0.003260
824 *223 *462 0.003200
825 *223 *365 0.046500
826 *223 *397 0.108310
*END

*D_NET *224 2.351060
*CONN
*P *224 O
*CAP
827 *224 *299 0.003720
828 *224 *298 0.220920
829 *224 *297 0.094290
830 *224 *28 0.712490
831 *224 *431 0.007060
832 *224 *333 0.062190
833 *224 *463 0.006860
834 *224 *291 0.078030
835 *224 *225 0.787330
836 *224 *290 0.111170
837 *224 *289 0.099530
838 *224 *232 0.008180
839 *224 *332 0.002740
840 *224 *527 0.003310
841 *224 *430 0.047030
842 *224 *462 0.106210
*END

*D_NET *225 2.880610
*CONN
*P *225 O
*CAP
843 *225 *300 0.005500
844 *225 *299 0.279760
845 *225 *298 0.087060
846 *225 *297 0.086610
847 *225 *28 0.673580
848 *225 *496 0.006880
849 *225 *528 0.008640
850 *225 *333 0.082970
851 *225 *292 0.103140
852 *225 *463 0.001560
853 *225 *291 0.117990
854 *225 *290 0.085900
855 *225 *398 0.001970
856 *225 *289 0.093430
857 *225 *226 1.073400
858 *225 *231 0.001810
859 *225 *232 0.001810
860 *225 *334 0.001690
861 *225 *234 0.010010
862 *225 *332 0.001060
863 *225 *592 0.003310
864 *225 *495 0.046980
865 *225 *527 0.105550
*END

*D_NET *226 3.130840
*CONN
*P *226 O
*CAP
866 *226 *235 0.129480
867 *226 *592 0.105500
868 *226 *301 0.014030
869 *226 *300 0.344360
870 *226 *658 0.001130
871 *226 *299 0.092520
872 *226 *561 0.008160
873 *226 *298 0.090850
874 *226 *593 0.012270
875 *226 *297 0.085670
876 *226 *28 0.671400
877 *226 *496 0.001560
878 *226 *528 0.004070
879 *226 *431 0.001550
880 *226 *293 0.128210
881 *226 *333 0.028370
882 *226 *292 0.141530
883 *226 *463 0.004010
884 *226 *291 0.099250
885 *226 *366 0.002470
886 *226 *290 0.096280
887 *226 *398 0.004190
888 *226 *289 0.093350
889 *226 *227 0.124070
890 *226 *231 0.471130
891 *226 *29 0.029380
892 *226 *232 0.158530
893 *226 *334 0.003320
894 *226 *234 0.132840
895 *226 *332 0.001060
896 *226 *657 0.003310
897 *226 *560 0.046990
*END

*D_NET *227 3.519970
*CONN
*P *227 O
*CAP
898 *227 *722 0.003500
899 *227 *625 0.046990
900 *227 *332 0.001680
901 *227 *657 0.105460
902 *227 *236 0.128860
903 *227 *821 0.002340
904 *227 *237 0.134570
905 *227 *853 0.005430
906 *227 *756 0.001690
907 *227 *788 0.004030
908 *227 *304 0.104310
909 *227 *691 0.002160
910 *227 *303 0.100080
911 *227 *238 0.160330
912 *227 *723 0.004790
913 *227 *302 0.138060
914 *227 *626 0.006780
915 *227 *301 0.195500
916 *227 *658 0.008630
917 *227 *239 0.253590
918 *227 *28 0.679600
919 *227 *296 0.094380
920 *227 *295 0.096960
921 *227 *294 0.305190
922 *227 *293 0.017660
923 *227 *333 0.032390
924 *227 *228 0.856860
925 *227 *29 0.025870
926 *227 *334 0.002280
*END

*D_NET *228 2.210030
*CONN
*P *228 O
*CAP
927 *228 *230 0.001720
928 *228 *787 0.003560
929 *228 *690 0.046990
930 *228 *722 0.105460
931 *228 *332 0.001680
932 *228 *237 0.010040
933 *228 *853 0.001560
934 *228 *788 0.001530
935 *228 *304 0.094760
936 *228 *691 0.006440
937 *228 *303 0.115720
938 *228 *238 0.001810
939 *228 *723 0.007160
940 *228 *302 0.163170
941 *228 *239 0.001810
942 *228 *28 0.682900
943 *228 *296 0.086070
944 *228 *295 0.238060
945 *228 *294 0.012160
946 *228 *333 0.055030
947 *228 *229 0.571330
948 *228 *29 0.001070
*END

*D_NET *229 1.663840
*CONN
*P *229 O
*CAP
949 *229 *820 0.001550
950 *229 *29 0.001240
951 *229 *852 0.003990
952 *229 *755 0.046990
953 *229 *230 0.289160
954 *229 *787 0.105460
955 *229 *332 0.001770
956 *229 *756 0.006390
957 *229 *788 0.006750
958 *229 *304 0.123020
959 *229 *303 0.130360
960 *229 *238 0.008200
961 *229 *28 0.726110
962 *229 *296 0.182880
963 *229 *295 0.008900
964 *229 *333 0.021070
*END

*D_NET *230 1.046440
*CONN
*P *230 O
*CAP
965 *230 *820 0.046630
966 *230 *852 0.105860
967 *230 *821 0.006390
968 *230 *853 0.006660
969 *230 *304 0.098740
970 *230 *239 0.007350
971 *230 *28 0.761960
972 *230 *296 0.005630
973 *230 *333 0.007220
*END

*D_NET *231 1.673590
*CONN
*P *231 O
*CAP
974 *231 *367 0.006390
975 *231 *399 0.006660
976 *231 *29 0.669880
977 *231 *232 0.504770
978 *231 *334 0.012770
979 *231 *234 0.001720
980 *231 *240 0.007350
981 *231 *298 0.001940
982 *231 *297 0.152040
983 *231 *333 0.003260
984 *231 *463 0.003200
985 *231 *366 0.046500
986 *231 *290 0.052200
987 *231 *398 0.108310
988 *231 *289 0.096600
*END

*D_NET *232 2.351060
*CONN
*P *232 O
*CAP
989 *232 *432 0.007060
990 *232 *464 0.006860
991 *232 *29 0.712490
992 *232 *334 0.062190
993 *232 *234 0.787330
994 *232 *241 0.008180
995 *232 *299 0.003720
996 *232 *298 0.220920
997 *232 *297 0.094290
998 *232 *528 0.003310
999 *232 *431 0.047030
1000 *232 *333 0.002740
1001 *232 *463 0.106210
1002 *232 *291 0.078030
1003 *232 *290 0.111170
1004 *232 *289 0.099530
*END

*D_NET *234 2.880610
*CONN
*P *234 O
*CAP
1005 *234 *497 0.006880
1006 *234 *529 0.008640
1007 *234 *464 0.001560
1008 *234 *399 0.001970
1009 *234 *29 0.673580
1010 *234 *334 0.082970
1011 *234 *235 1.073400
1012 *234 *240 0.001810
1013 *234 *241 0.001810
1014 *234 *300 0.005500
1015 *234 *299 0.279760
1016 *234 *298 0.087060
1017 *234 *593 0.003310
1018 *234 *297 0.086610
1019 *234 *335 0.001690
1020 *234 *496 0.046980
1021 *234 *242 0.010010
1022 *234 *528 0.105550
1023 *234 *333 0.001060
1024 *234 *292 0.103140
1025 *234 *291 0.117990
1026 *234 *290 0.085900
1027 *234 *289 0.093430
*END

*D_NET *235 3.130840
*CONN
*P *235 O
*CAP
1028 *235 *659 0.001130
1029 *235 *562 0.008160
1030 *235 *594 0.012270
1031 *235 *497 0.001560
1032 *235 *529 0.004070
1033 *235 *432 0.001550
1034 *235 *464 0.004010
1035 *235 *367 0.002470
1036 *235 *399 0.004190
1037 *235 *29 0.671400
1038 *235 *334 0.028370
1039 *235 *236 0.124070
1040 *235 *240 0.471130
1041 *235 *30 0.029380
1042 *235 *301 0.014030
1043 *235 *241 0.158530
1044 *235 *300 0.344360
1045 *235 *658 0.003310
1046 *235 *299 0.092520
1047 *235 *561 0.046990
1048 *235 *298 0.090850
1049 *235 *593 0.105500
1050 *235 *297 0.085670
1051 *235 *335 0.003320
1052 *235 *242 0.132840
1053 *235 *293 0.128210
1054 *235 *333 0.001060
1055 *235 *292 0.141530
1056 *235 *291 0.099250
1057 *235 *290 0.096280
1058 *235 *243 0.129480
1059 *235 *289 0.093350
*END

*D_NET *236 3.519970
*CONN
*P *236 O
*CAP
1060 *236 *822 0.002340
1061 *236 *854 0.005430
1062 *236 *757 0.001690
1063 *236 *245 0.128860
1064 *236 *789 0.004030
1065 *236 *692 0.002160
1066 *236 *724 0.004790
1067 *236 *627 0.006780
1068 *236 *246 0.134570
1069 *236 *659 0.008630
1070 *236 *247 0.160330
1071 *236 *248 0.253590
1072 *236 *29 0.679600
1073 *236 *334 0.032390
1074 *236 *237 0.856860
1075 *236 *304 0.104310
1076 *236 *303 0.100080
1077 *236 *723 0.003500
1078 *236 *302 0.138060
1079 *236 *30 0.025870
1080 *236 *626 0.046990
1081 *236 *301 0.195500
1082 *236 *658 0.105460
1083 *236 *335 0.002280
1084 *236 *296 0.094380
1085 *236 *295 0.096960
1086 *236 *294 0.305190
1087 *236 *293 0.017660
1088 *236 *333 0.001680
*END

*D_NET *237 2.210030
*CONN
*P *237 O
*CAP
1089 *237 *296 0.086070
1090 *237 *295 0.238060
1091 *237 *294 0.012160
1092 *237 *333 0.001680
1093 *237 *854 0.001560
1094 *237 *789 0.001530
1095 *237 *692 0.006440
1096 *237 *724 0.007160
1097 *237 *246 0.010040
1098 *237 *247 0.001810
1099 *237 *248 0.001810
1100 *237 *29 0.682900
1101 *237 *334 0.055030
1102 *237 *788 0.003560
1103 *237 *304 0.094760
1104 *237 *691 0.046990
1105 *237 *303 0.115720
1106 *237 *238 0.571330
1107 *237 *723 0.105460
1108 *237 *302 0.163170
1109 *237 *30 0.001070
1110 *237 *239 0.001720
*END

*D_NET *238 1.663840
*CONN
*P *238 O
*CAP
1111 *238 *30 0.001240
1112 *238 *239 0.289160
1113 *238 *296 0.182880
1114 *238 *295 0.008900
1115 *238 *333 0.001770
1116 *238 *757 0.006390
1117 *238 *789 0.006750
1118 *238 *247 0.008200
1119 *238 *29 0.726110
1120 *238 *334 0.021070
1121 *238 *821 0.001550
1122 *238 *853 0.003990
1123 *238 *756 0.046990
1124 *238 *788 0.105460
1125 *238 *304 0.123020
1126 *238 *303 0.130360
*END

*D_NET *239 1.046440
*CONN
*P *239 O
*CAP
1127 *239 *304 0.098740
1128 *239 *296 0.005630
1129 *239 *822 0.006390
1130 *239 *854 0.006660
1131 *239 *248 0.007350
1132 *239 *29 0.761960
1133 *239 *334 0.007220
1134 *239 *821 0.046630
1135 *239 *853 0.105860
*END

*D_NET *240 1.673590
*CONN
*P *240 O
*CAP
1136 *240 *298 0.001940
1137 *240 *297 0.152040
1138 *240 *335 0.012770
1139 *240 *242 0.001720
1140 *240 *290 0.052200
1141 *240 *289 0.096600
1142 *240 *249 0.007350
1143 *240 *464 0.003200
1144 *240 *367 0.046500
1145 *240 *399 0.108310
1146 *240 *334 0.003260
1147 *240 *368 0.006390
1148 *240 *400 0.006660
1149 *240 *30 0.669880
1150 *240 *241 0.504770
*END

*D_NET *241 2.351060
*CONN
*P *241 O
*CAP
1151 *241 *30 0.712490
1152 *241 *299 0.003720
1153 *241 *298 0.220920
1154 *241 *297 0.094290
1155 *241 *335 0.062190
1156 *241 *242 0.787330
1157 *241 *291 0.078030
1158 *241 *290 0.111170
1159 *241 *289 0.099530
1160 *241 *529 0.003310
1161 *241 *432 0.047030
1162 *241 *250 0.008180
1163 *241 *464 0.106210
1164 *241 *334 0.002740
1165 *241 *433 0.007060
1166 *241 *465 0.006860
*END

*D_NET *242 2.880610
*CONN
*P *242 O
*CAP
1167 *242 *400 0.001970
1168 *242 *30 0.673580
1169 *242 *300 0.005500
1170 *242 *299 0.279760
1171 *242 *298 0.087060
1172 *242 *297 0.086610
1173 *242 *335 0.082970
1174 *242 *292 0.103140
1175 *242 *291 0.117990
1176 *242 *290 0.085900
1177 *242 *243 1.073400
1178 *242 *289 0.093430
1179 *242 *249 0.001810
1180 *242 *594 0.003310
1181 *242 *497 0.046980
1182 *242 *529 0.105550
1183 *242 *250 0.001810
1184 *242 *336 0.001690
1185 *242 *251 0.010010
1186 *242 *334 0.001060
1187 *242 *498 0.006880
1188 *242 *530 0.008640
1189 *242 *465 0.001560
*END

*D_NET *243 3.130840
*CONN
*P *243 O
*CAP
1190 *243 *530 0.004070
1191 *243 *433 0.001550
1192 *243 *465 0.004010
1193 *243 *368 0.002470
1194 *243 *400 0.004190
1195 *243 *30 0.671400
1196 *243 *301 0.014030
1197 *243 *300 0.344360
1198 *243 *299 0.092520
1199 *243 *298 0.090850
1200 *243 *297 0.085670
1201 *243 *335 0.028370
1202 *243 *293 0.128210
1203 *243 *292 0.141530
1204 *243 *291 0.099250
1205 *243 *290 0.096280
1206 *243 *289 0.093350
1207 *243 *245 0.124070
1208 *243 *659 0.003310
1209 *243 *562 0.046990
1210 *243 *249 0.471130
1211 *243 *594 0.105500
1212 *243 *31 0.029380
1213 *243 *250 0.158530
1214 *243 *336 0.003320
1215 *243 *251 0.132840
1216 *243 *334 0.001060
1217 *243 *252 0.129480
1218 *243 *660 0.001130
1219 *243 *563 0.008160
1220 *243 *595 0.012270
1221 *243 *498 0.001560
*END

*D_NET *245 3.519970
*CONN
*P *245 O
*CAP
1222 *245 *660 0.008630
1223 *245 *253 0.128860
1224 *245 *254 0.134570
1225 *245 *256 0.160330
1226 *245 *304 0.104310
1227 *245 *303 0.100080
1228 *245 *302 0.138060
1229 *245 *257 0.253590
1230 *245 *30 0.679600
1231 *245 *301 0.195500
1232 *245 *335 0.032390
1233 *245 *296 0.094380
1234 *245 *295 0.096960
1235 *245 *294 0.305190
1236 *245 *293 0.017660
1237 *245 *724 0.003500
1238 *245 *627 0.046990
1239 *245 *246 0.856860
1240 *245 *659 0.105460
1241 *245 *31 0.025870
1242 *245 *336 0.002280
1243 *245 *823 0.002340
1244 *245 *855 0.005430
1245 *245 *758 0.001690
1246 *245 *334 0.001680
1247 *245 *790 0.004030
1248 *245 *693 0.002160
1249 *245 *725 0.004790
1250 *245 *628 0.006780
*END

*D_NET *246 2.210030
*CONN
*P *246 O
*CAP
1251 *246 *790 0.001530
1252 *246 *693 0.006440
1253 *246 *725 0.007160
1254 *246 *254 0.010040
1255 *246 *256 0.001810
1256 *246 *304 0.094760
1257 *246 *303 0.115720
1258 *246 *302 0.163170
1259 *246 *257 0.001810
1260 *246 *30 0.682900
1261 *246 *335 0.055030
1262 *246 *296 0.086070
1263 *246 *295 0.238060
1264 *246 *294 0.012160
1265 *246 *789 0.003560
1266 *246 *692 0.046990
1267 *246 *724 0.105460
1268 *246 *247 0.571330
1269 *246 *31 0.001070
1270 *246 *248 0.001720
1271 *246 *855 0.001560
1272 *246 *334 0.001680
*END

*D_NET *247 1.663840
*CONN
*P *247 O
*CAP
1273 *247 *758 0.006390
1274 *247 *334 0.001770
1275 *247 *790 0.006750
1276 *247 *256 0.008200
1277 *247 *304 0.123020
1278 *247 *303 0.130360
1279 *247 *30 0.726110
1280 *247 *335 0.021070
1281 *247 *296 0.182880
1282 *247 *295 0.008900
1283 *247 *822 0.001550
1284 *247 *854 0.003990
1285 *247 *757 0.046990
1286 *247 *789 0.105460
1287 *247 *31 0.001240
1288 *247 *248 0.289160
*END

*D_NET *248 1.046440
*CONN
*P *248 O
*CAP
1289 *248 *823 0.006390
1290 *248 *855 0.006660
1291 *248 *304 0.098740
1292 *248 *257 0.007350
1293 *248 *30 0.761960
1294 *248 *335 0.007220
1295 *248 *296 0.005630
1296 *248 *822 0.046630
1297 *248 *854 0.105860
*END

*D_NET *249 1.673590
*CONN
*P *249 O
*CAP
1298 *249 *251 0.001720
1299 *249 *465 0.003200
1300 *249 *368 0.046500
1301 *249 *258 0.007350
1302 *249 *400 0.108310
1303 *249 *298 0.001940
1304 *249 *297 0.152040
1305 *249 *335 0.003260
1306 *249 *290 0.052200
1307 *249 *337 0.006390
1308 *249 *289 0.096600
1309 *249 *370 0.006660
1310 *249 *31 0.669880
1311 *249 *250 0.504770
1312 *249 *336 0.012770
*END

*D_NET *250 2.351060
*CONN
*P *250 O
*CAP
1313 *250 *336 0.062190
1314 *250 *251 0.787330
1315 *250 *530 0.003310
1316 *250 *433 0.047030
1317 *250 *465 0.106210
1318 *250 *259 0.008180
1319 *250 *299 0.003720
1320 *250 *298 0.220920
1321 *250 *297 0.094290
1322 *250 *335 0.002740
1323 *250 *402 0.007060
1324 *250 *291 0.078030
1325 *250 *435 0.006860
1326 *250 *290 0.111170
1327 *250 *289 0.099530
1328 *250 *31 0.712490
*END

*D_NET *251 2.880610
*CONN
*P *251 O
*CAP
1329 *251 *31 0.673580
1330 *251 *336 0.082970
1331 *251 *252 1.073400
1332 *251 *595 0.003310
1333 *251 *498 0.046980
1334 *251 *530 0.105550
1335 *251 *258 0.001810
1336 *251 *259 0.001810
1337 *251 *306 0.001690
1338 *251 *300 0.005500
1339 *251 *260 0.010010
1340 *251 *299 0.279760
1341 *251 *298 0.087060
1342 *251 *297 0.086610
1343 *251 *335 0.001060
1344 *251 *467 0.006880
1345 *251 *500 0.008640
1346 *251 *292 0.103140
1347 *251 *291 0.117990
1348 *251 *435 0.001560
1349 *251 *290 0.085900
1350 *251 *289 0.093430
1351 *251 *370 0.001970
*END

*D_NET *252 3.130840
*CONN
*P *252 O
*CAP
1352 *252 *31 0.671400
1353 *252 *336 0.028370
1354 *252 *660 0.003310
1355 *252 *563 0.046990
1356 *252 *253 0.124070
1357 *252 *595 0.105500
1358 *252 *258 0.471130
1359 *252 *32 0.029380
1360 *252 *259 0.158530
1361 *252 *301 0.014030
1362 *252 *306 0.003320
1363 *252 *300 0.344360
1364 *252 *260 0.132840
1365 *252 *299 0.092520
1366 *252 *630 0.001130
1367 *252 *298 0.090850
1368 *252 *532 0.008160
1369 *252 *297 0.085670
1370 *252 *335 0.001060
1371 *252 *565 0.012270
1372 *252 *467 0.001560
1373 *252 *261 0.129480
1374 *252 *500 0.004070
1375 *252 *293 0.128210
1376 *252 *292 0.141530
1377 *252 *402 0.001550
1378 *252 *291 0.099250
1379 *252 *435 0.004010
1380 *252 *290 0.096280
1381 *252 *337 0.002470
1382 *252 *289 0.093350
1383 *252 *370 0.004190
*END

*D_NET *253 3.519970
*CONN
*P *253 O
*CAP
1384 *253 *263 0.134570
1385 *253 *264 0.160330
1386 *253 *265 0.253590
1387 *253 *31 0.679600
1388 *253 *336 0.032390
1389 *253 *725 0.003500
1390 *253 *628 0.046990
1391 *253 *660 0.105460
1392 *253 *254 0.856860
1393 *253 *792 0.002340
1394 *253 *825 0.005430
1395 *253 *32 0.025870
1396 *253 *727 0.001690
1397 *253 *304 0.104310
1398 *253 *760 0.004030
1399 *253 *303 0.100080
1400 *253 *662 0.002160
1401 *253 *302 0.138060
1402 *253 *695 0.004790
1403 *253 *301 0.195500
1404 *253 *306 0.002280
1405 *253 *597 0.006780
1406 *253 *630 0.008630
1407 *253 *335 0.001680
1408 *253 *296 0.094380
1409 *253 *295 0.096960
1410 *253 *294 0.305190
1411 *253 *293 0.017660
1412 *253 *262 0.128860
*END

*D_NET *254 2.210030
*CONN
*P *254 O
*CAP
1413 *254 *263 0.010040
1414 *254 *264 0.001810
1415 *254 *265 0.001810
1416 *254 *31 0.682900
1417 *254 *336 0.055030
1418 *254 *790 0.003560
1419 *254 *693 0.046990
1420 *254 *725 0.105460
1421 *254 *256 0.571330
1422 *254 *825 0.001560
1423 *254 *32 0.001070
1424 *254 *304 0.094760
1425 *254 *760 0.001530
1426 *254 *303 0.115720
1427 *254 *662 0.006440
1428 *254 *302 0.163170
1429 *254 *257 0.001720
1430 *254 *695 0.007160
1431 *254 *335 0.001680
1432 *254 *296 0.086070
1433 *254 *295 0.238060
1434 *254 *294 0.012160
*END

*D_NET *256 1.663840
*CONN
*P *256 O
*CAP
1435 *256 *335 0.001770
1436 *256 *296 0.182880
1437 *256 *295 0.008900
1438 *256 *264 0.008200
1439 *256 *31 0.726110
1440 *256 *336 0.021070
1441 *256 *823 0.001550
1442 *256 *855 0.003990
1443 *256 *758 0.046990
1444 *256 *790 0.105460
1445 *256 *32 0.001240
1446 *256 *727 0.006390
1447 *256 *304 0.123020
1448 *256 *760 0.006750
1449 *256 *303 0.130360
1450 *256 *257 0.289160
*END

*D_NET *257 1.046440
*CONN
*P *257 O
*CAP
1451 *257 *296 0.005630
1452 *257 *265 0.007350
1453 *257 *31 0.761960
1454 *257 *336 0.007220
1455 *257 *823 0.046630
1456 *257 *855 0.105860
1457 *257 *792 0.006390
1458 *257 *825 0.006660
1459 *257 *304 0.098740
*END

*D_NET *258 1.673590
*CONN
*P *258 O
*CAP
1460 *258 *435 0.003200
1461 *258 *290 0.052200
1462 *258 *337 0.046500
1463 *258 *289 0.096600
1464 *258 *370 0.108310
1465 *258 *267 0.007350
1466 *258 *338 0.006390
1467 *258 *336 0.003260
1468 *258 *371 0.006660
1469 *258 *32 0.669880
1470 *258 *259 0.504770
1471 *258 *306 0.012770
1472 *258 *260 0.001720
1473 *258 *298 0.001940
1474 *258 *297 0.152040
*END

*D_NET *259 2.351060
*CONN
*P *259 O
*CAP
1475 *259 *260 0.787330
1476 *259 *299 0.003720
1477 *259 *298 0.220920
1478 *259 *297 0.094290
1479 *259 *500 0.003310
1480 *259 *402 0.047030
1481 *259 *291 0.078030
1482 *259 *435 0.106210
1483 *259 *290 0.111170
1484 *259 *289 0.099530
1485 *259 *268 0.008180
1486 *259 *403 0.007060
1487 *259 *436 0.006860
1488 *259 *336 0.002740
1489 *259 *32 0.712490
1490 *259 *306 0.062190
*END

*D_NET *260 2.880610
*CONN
*P *260 O
*CAP
1491 *260 *32 0.673580
1492 *260 *306 0.082970
1493 *260 *300 0.005500
1494 *260 *299 0.279760
1495 *260 *298 0.087060
1496 *260 *297 0.086610
1497 *260 *565 0.003310
1498 *260 *467 0.046980
1499 *260 *261 1.073400
1500 *260 *500 0.105550
1501 *260 *292 0.103140
1502 *260 *291 0.117990
1503 *260 *290 0.085900
1504 *260 *289 0.093430
1505 *260 *267 0.001810
1506 *260 *268 0.001810
1507 *260 *468 0.006880
1508 *260 *501 0.008640
1509 *260 *307 0.001690
1510 *260 *269 0.010010
1511 *260 *436 0.001560
1512 *260 *336 0.001060
1513 *260 *371 0.001970
*END

*D_NET *261 3.130840
*CONN
*P *261 O
*CAP
1514 *261 *32 0.671400
1515 *261 *301 0.014030
1516 *261 *306 0.028370
1517 *261 *300 0.344360
1518 *261 *299 0.092520
1519 *261 *630 0.003310
1520 *261 *298 0.090850
1521 *261 *532 0.046990
1522 *261 *297 0.085670
1523 *261 *565 0.105500
1524 *261 *293 0.128210
1525 *261 *292 0.141530
1526 *261 *291 0.099250
1527 *261 *290 0.096280
1528 *261 *289 0.093350
1529 *261 *262 0.124070
1530 *261 *267 0.471130
1531 *261 *631 0.001130
1532 *261 *2 0.029380
1533 *261 *533 0.008160
1534 *261 *268 0.158530
1535 *261 *566 0.012270
1536 *261 *468 0.001560
1537 *261 *501 0.004070
1538 *261 *307 0.003320
1539 *261 *403 0.001550
1540 *261 *269 0.132840
1541 *261 *436 0.004010
1542 *261 *338 0.002470
1543 *261 *336 0.001060
1544 *261 *371 0.004190
1545 *261 *270 0.129480
*END

*D_NET *262 3.519970
*CONN
*P *262 O
*CAP
1546 *262 *273 0.160330
1547 *262 *274 0.253590
1548 *262 *32 0.679600
1549 *262 *304 0.104310
1550 *262 *303 0.100080
1551 *262 *302 0.138060
1552 *262 *695 0.003500
1553 *262 *301 0.195500
1554 *262 *306 0.032390
1555 *262 *597 0.046990
1556 *262 *630 0.105460
1557 *262 *296 0.094380
1558 *262 *295 0.096960
1559 *262 *294 0.305190
1560 *262 *293 0.017660
1561 *262 *793 0.002340
1562 *262 *826 0.005430
1563 *262 *728 0.001690
1564 *262 *263 0.856860
1565 *262 *761 0.004030
1566 *262 *663 0.002160
1567 *262 *696 0.004790
1568 *262 *598 0.006780
1569 *262 *631 0.008630
1570 *262 *2 0.025870
1571 *262 *307 0.002280
1572 *262 *336 0.001680
1573 *262 *271 0.128860
1574 *262 *272 0.134570
*END

*D_NET *263 2.210030
*CONN
*P *263 O
*CAP
1575 *263 *272 0.010040
1576 *263 *273 0.001810
1577 *263 *274 0.001810
1578 *263 *32 0.682900
1579 *263 *304 0.094760
1580 *263 *760 0.003560
1581 *263 *303 0.115720
1582 *263 *662 0.046990
1583 *263 *302 0.163170
1584 *263 *695 0.105460
1585 *263 *306 0.055030
1586 *263 *296 0.086070
1587 *263 *295 0.238060
1588 *263 *294 0.012160
1589 *263 *826 0.001560
1590 *263 *761 0.001530
1591 *263 *663 0.006440
1592 *263 *696 0.007160
1593 *263 *264 0.571330
1594 *263 *2 0.001070
1595 *263 *265 0.001720
1596 *263 *336 0.001680
*END

*D_NET *264 1.663840
*CONN
*P *264 O
*CAP
1597 *264 *273 0.008200
1598 *264 *792 0.001550
1599 *264 *825 0.003990
1600 *264 *32 0.726110
1601 *264 *727 0.046990
1602 *264 *304 0.123020
1603 *264 *760 0.105460
1604 *264 *303 0.130360
1605 *264 *306 0.021070
1606 *264 *296 0.182880
1607 *264 *295 0.008900
1608 *264 *728 0.006390
1609 *264 *761 0.006750
1610 *264 *2 0.001240
1611 *264 *265 0.289160
1612 *264 *336 0.001770
*END

*D_NET *265 1.046440
*CONN
*P *265 O
*CAP
1613 *265 *792 0.046630
1614 *265 *825 0.105860
1615 *265 *274 0.007350
1616 *265 *32 0.761960
1617 *265 *304 0.098740
1618 *265 *306 0.007220
1619 *265 *296 0.005630
1620 *265 *793 0.006390
1621 *265 *826 0.006660
*END

*D_NET *267 1.673590
*CONN
*P *267 O
*CAP
1622 *267 *275 0.007350
1623 *267 *339 0.006390
1624 *267 *372 0.006660
1625 *267 *306 0.003260
1626 *267 *298 0.001940
1627 *267 *297 0.152040
1628 *267 *290 0.052200
1629 *267 *289 0.096600
1630 *267 *2 0.669880
1631 *267 *268 0.504770
1632 *267 *307 0.012770
1633 *267 *269 0.001720
1634 *267 *436 0.003200
1635 *267 *338 0.046500
1636 *267 *371 0.108310
*END

*D_NET *268 2.351060
*CONN
*P *268 O
*CAP
1637 *268 *404 0.007060
1638 *268 *437 0.006860
1639 *268 *276 0.008180
1640 *268 *306 0.002740
1641 *268 *299 0.003720
1642 *268 *298 0.220920
1643 *268 *297 0.094290
1644 *268 *291 0.078030
1645 *268 *290 0.111170
1646 *268 *289 0.099530
1647 *268 *2 0.712490
1648 *268 *501 0.003310
1649 *268 *307 0.062190
1650 *268 *403 0.047030
1651 *268 *269 0.787330
1652 *268 *436 0.106210
*END

*D_NET *269 2.880610
*CONN
*P *269 O
*CAP
1653 *269 *501 0.105550
1654 *269 *307 0.082970
1655 *269 *270 1.073400
1656 *269 *469 0.006880
1657 *269 *275 0.001810
1658 *269 *502 0.008640
1659 *269 *437 0.001560
1660 *269 *276 0.001810
1661 *269 *372 0.001970
1662 *269 *308 0.001690
1663 *269 *278 0.010010
1664 *269 *306 0.001060
1665 *269 *300 0.005500
1666 *269 *299 0.279760
1667 *269 *298 0.087060
1668 *269 *297 0.086610
1669 *269 *292 0.103140
1670 *269 *291 0.117990
1671 *269 *290 0.085900
1672 *269 *289 0.093430
1673 *269 *2 0.673580
1674 *269 *566 0.003310
1675 *269 *468 0.046980
*END

*D_NET *270 3.130840
*CONN
*P *270 O
*CAP
1676 *270 *631 0.003310
1677 *270 *2 0.671400
1678 *270 *533 0.046990
1679 *270 *566 0.105500
1680 *270 *307 0.028370
1681 *270 *271 0.124070
1682 *270 *632 0.001130
1683 *270 *534 0.008160
1684 *270 *567 0.012270
1685 *270 *469 0.001560
1686 *270 *275 0.471130
1687 *270 *502 0.004070
1688 *270 *404 0.001550
1689 *270 *437 0.004010
1690 *270 *3 0.029380
1691 *270 *339 0.002470
1692 *270 *276 0.158530
1693 *270 *372 0.004190
1694 *270 *308 0.003320
1695 *270 *278 0.132840
1696 *270 *301 0.014030
1697 *270 *306 0.001060
1698 *270 *300 0.344360
1699 *270 *299 0.092520
1700 *270 *279 0.129480
1701 *270 *298 0.090850
1702 *270 *297 0.085670
1703 *270 *293 0.128210
1704 *270 *292 0.141530
1705 *270 *291 0.099250
1706 *270 *290 0.096280
1707 *270 *289 0.093350
*END

*D_NET *271 3.519970
*CONN
*P *271 O
*CAP
1708 *271 *282 0.160330
1709 *271 *696 0.003500
1710 *271 *598 0.046990
1711 *271 *631 0.105460
1712 *271 *283 0.253590
1713 *271 *2 0.679600
1714 *271 *307 0.032390
1715 *271 *794 0.002340
1716 *271 *827 0.005430
1717 *271 *729 0.001690
1718 *271 *762 0.004030
1719 *271 *664 0.002160
1720 *271 *697 0.004790
1721 *271 *599 0.006780
1722 *271 *632 0.008630
1723 *271 *272 0.856860
1724 *271 *3 0.025870
1725 *271 *308 0.002280
1726 *271 *304 0.104310
1727 *271 *303 0.100080
1728 *271 *302 0.138060
1729 *271 *301 0.195500
1730 *271 *306 0.001680
1731 *271 *296 0.094380
1732 *271 *295 0.096960
1733 *271 *294 0.305190
1734 *271 *293 0.017660
1735 *271 *280 0.128860
1736 *271 *281 0.134570
*END

*D_NET *272 2.210030
*CONN
*P *272 O
*CAP
1737 *272 *281 0.010040
1738 *272 *761 0.003560
1739 *272 *282 0.001810
1740 *272 *663 0.046990
1741 *272 *696 0.105460
1742 *272 *283 0.001810
1743 *272 *2 0.682900
1744 *272 *307 0.055030
1745 *272 *827 0.001560
1746 *272 *762 0.001530
1747 *272 *664 0.006440
1748 *272 *697 0.007160
1749 *272 *273 0.571330
1750 *272 *3 0.001070
1751 *272 *274 0.001720
1752 *272 *304 0.094760
1753 *272 *303 0.115720
1754 *272 *302 0.163170
1755 *272 *306 0.001680
1756 *272 *296 0.086070
1757 *272 *295 0.238060
1758 *272 *294 0.012160
*END

*D_NET *273 1.663840
*CONN
*P *273 O
*CAP
1759 *273 *793 0.001550
1760 *273 *826 0.003990
1761 *273 *728 0.046990
1762 *273 *761 0.105460
1763 *273 *282 0.008200
1764 *273 *2 0.726110
1765 *273 *307 0.021070
1766 *273 *729 0.006390
1767 *273 *762 0.006750
1768 *273 *3 0.001240
1769 *273 *274 0.289160
1770 *273 *304 0.123020
1771 *273 *303 0.130360
1772 *273 *306 0.001770
1773 *273 *296 0.182880
1774 *273 *295 0.008900
*END

*D_NET *274 1.046440
*CONN
*P *274 O
*CAP
1775 *274 *296 0.005630
1776 *274 *793 0.046630
1777 *274 *826 0.105860
1778 *274 *283 0.007350
1779 *274 *2 0.761960
1780 *274 *307 0.007220
1781 *274 *794 0.006390
1782 *274 *827 0.006660
1783 *274 *304 0.098740
*END

*D_NET *275 1.673590
*CONN
*P *275 O
*CAP
1784 *275 *290 0.052200
1785 *275 *289 0.096600
1786 *275 *340 0.006390
1787 *275 *373 0.006660
1788 *275 *307 0.003260
1789 *275 *284 0.007350
1790 *275 *437 0.003200
1791 *275 *3 0.669880
1792 *275 *339 0.046500
1793 *275 *276 0.504770
1794 *275 *372 0.108310
1795 *275 *308 0.012770
1796 *275 *278 0.001720
1797 *275 *298 0.001940
1798 *275 *297 0.152040
*END

*D_NET *276 2.351060
*CONN
*P *276 O
*CAP
1799 *276 *291 0.078030
1800 *276 *405 0.007060
1801 *276 *290 0.111170
1802 *276 *438 0.006860
1803 *276 *289 0.099530
1804 *276 *307 0.002740
1805 *276 *285 0.008180
1806 *276 *502 0.003310
1807 *276 *404 0.047030
1808 *276 *437 0.106210
1809 *276 *3 0.712490
1810 *276 *308 0.062190
1811 *276 *278 0.787330
1812 *276 *299 0.003720
1813 *276 *298 0.220920
1814 *276 *297 0.094290
*END

*D_NET *278 2.880610
*CONN
*P *278 O
*CAP
1815 *278 *300 0.005500
1816 *278 *299 0.279760
1817 *278 *279 1.073400
1818 *278 *298 0.087060
1819 *278 *297 0.086610
1820 *278 *470 0.006880
1821 *278 *503 0.008640
1822 *278 *292 0.103140
1823 *278 *291 0.117990
1824 *278 *290 0.085900
1825 *278 *438 0.001560
1826 *278 *289 0.093430
1827 *278 *373 0.001970
1828 *278 *307 0.001060
1829 *278 *284 0.001810
1830 *278 *285 0.001810
1831 *278 *309 0.001690
1832 *278 *286 0.010010
1833 *278 *567 0.003310
1834 *278 *469 0.046980
1835 *278 *502 0.105550
1836 *278 *3 0.673580
1837 *278 *308 0.082970
*END

*D_NET *279 3.130840
*CONN
*P *279 O
*CAP
1838 *279 *308 0.028370
1839 *279 *301 0.014030
1840 *279 *300 0.344360
1841 *279 *299 0.092520
1842 *279 *298 0.090850
1843 *279 *633 0.001130
1844 *279 *297 0.085670
1845 *279 *535 0.008160
1846 *279 *568 0.012270
1847 *279 *470 0.001560
1848 *279 *293 0.128210
1849 *279 *280 0.124070
1850 *279 *503 0.004070
1851 *279 *292 0.141530
1852 *279 *291 0.099250
1853 *279 *405 0.001550
1854 *279 *290 0.096280
1855 *279 *438 0.004010
1856 *279 *289 0.093350
1857 *279 *340 0.002470
1858 *279 *373 0.004190
1859 *279 *307 0.001060
1860 *279 *284 0.471130
1861 *279 *4 0.029380
1862 *279 *285 0.158530
1863 *279 *309 0.003320
1864 *279 *286 0.132840
1865 *279 *632 0.003310
1866 *279 *287 0.129480
1867 *279 *534 0.046990
1868 *279 *567 0.105500
1869 *279 *3 0.671400
*END

*D_NET *280 3.519970
*CONN
*P *280 O
*CAP
1870 *280 *34 0.128860
1871 *280 *3 0.679600
1872 *280 *36 0.160330
1873 *280 *795 0.002340
1874 *280 *828 0.005430
1875 *280 *308 0.032390
1876 *280 *730 0.001690
1877 *280 *304 0.104310
1878 *280 *303 0.100080
1879 *280 *763 0.004030
1880 *280 *302 0.138060
1881 *280 *665 0.002160
1882 *280 *301 0.195500
1883 *280 *698 0.004790
1884 *280 *600 0.006780
1885 *280 *633 0.008630
1886 *280 *296 0.094380
1887 *280 *295 0.096960
1888 *280 *294 0.305190
1889 *280 *293 0.017660
1890 *280 *281 0.856860
1891 *280 *35 0.134570
1892 *280 *37 0.253590
1893 *280 *307 0.001680
1894 *280 *4 0.025870
1895 *280 *309 0.002280
1896 *280 *697 0.003500
1897 *280 *599 0.046990
1898 *280 *632 0.105460
*END

*D_NET *281 2.210030
*CONN
*P *281 O
*CAP
1899 *281 *3 0.682900
1900 *281 *36 0.001810
1901 *281 *828 0.001560
1902 *281 *308 0.055030
1903 *281 *304 0.094760
1904 *281 *303 0.115720
1905 *281 *763 0.001530
1906 *281 *302 0.163170
1907 *281 *665 0.006440
1908 *281 *698 0.007160
1909 *281 *296 0.086070
1910 *281 *295 0.238060
1911 *281 *294 0.012160
1912 *281 *282 0.571330
1913 *281 *35 0.010040
1914 *281 *283 0.001720
1915 *281 *37 0.001810
1916 *281 *307 0.001680
1917 *281 *4 0.001070
1918 *281 *762 0.003560
1919 *281 *664 0.046990
1920 *281 *697 0.105460
*END

*D_NET *282 1.663840
*CONN
*P *282 O
*CAP
1921 *282 *3 0.726110
1922 *282 *36 0.008200
1923 *282 *308 0.021070
1924 *282 *730 0.006390
1925 *282 *304 0.123020
1926 *282 *303 0.130360
1927 *282 *763 0.006750
1928 *282 *296 0.182880
1929 *282 *295 0.008900
1930 *282 *283 0.289160
1931 *282 *307 0.001770
1932 *282 *4 0.001240
1933 *282 *794 0.001550
1934 *282 *827 0.003990
1935 *282 *729 0.046990
1936 *282 *762 0.105460
*END

*D_NET *283 1.046440
*CONN
*P *283 O
*CAP
1937 *283 *827 0.105860
1938 *283 *3 0.761960
1939 *283 *795 0.006390
1940 *283 *828 0.006660
1941 *283 *308 0.007220
1942 *283 *304 0.098740
1943 *283 *296 0.005630
1944 *283 *37 0.007350
1945 *283 *794 0.046630
*END

*D_NET *284 1.673590
*CONN
*P *284 O
*CAP
1946 *284 *341 0.006390
1947 *284 *4 0.669880
1948 *284 *374 0.006660
1949 *284 *285 0.504770
1950 *284 *309 0.012770
1951 *284 *286 0.001720
1952 *284 *308 0.003260
1953 *284 *298 0.001940
1954 *284 *297 0.152040
1955 *284 *290 0.052200
1956 *284 *438 0.003200
1957 *284 *289 0.096600
1958 *284 *340 0.046500
1959 *284 *373 0.108310
1960 *284 *38 0.007350
*END

*D_NET *285 2.351060
*CONN
*P *285 O
*CAP
1961 *285 *406 0.007060
1962 *285 *439 0.006860
1963 *285 *4 0.712490
1964 *285 *309 0.062190
1965 *285 *286 0.787330
1966 *285 *39 0.008180
1967 *285 *308 0.002740
1968 *285 *299 0.003720
1969 *285 *298 0.220920
1970 *285 *297 0.094290
1971 *285 *503 0.003310
1972 *285 *291 0.078030
1973 *285 *405 0.047030
1974 *285 *290 0.111170
1975 *285 *438 0.106210
1976 *285 *289 0.099530
*END

*D_NET *286 2.880610
*CONN
*P *286 O
*CAP
1977 *286 *38 0.001810
1978 *286 *40 0.010010
1979 *286 *471 0.006880
1980 *286 *504 0.008640
1981 *286 *439 0.001560
1982 *286 *310 0.001690
1983 *286 *4 0.673580
1984 *286 *374 0.001970
1985 *286 *309 0.082970
1986 *286 *287 1.073400
1987 *286 *39 0.001810
1988 *286 *308 0.001060
1989 *286 *300 0.005500
1990 *286 *299 0.279760
1991 *286 *298 0.087060
1992 *286 *297 0.086610
1993 *286 *568 0.003310
1994 *286 *470 0.046980
1995 *286 *503 0.105550
1996 *286 *292 0.103140
1997 *286 *291 0.117990
1998 *286 *290 0.085900
1999 *286 *289 0.093430
*END

*D_NET *287 3.130840
*CONN
*P *287 O
*CAP
2000 *287 *634 0.001130
2001 *287 *38 0.471130
2002 *287 *536 0.008160
2003 *287 *569 0.012270
2004 *287 *40 0.132840
2005 *287 *471 0.001560
2006 *287 *5 0.029380
2007 *287 *504 0.004070
2008 *287 *406 0.001550
2009 *287 *439 0.004010
2010 *287 *310 0.003320
2011 *287 *341 0.002470
2012 *287 *4 0.671400
2013 *287 *374 0.004190
2014 *287 *309 0.028370
2015 *287 *34 0.124070
2016 *287 *39 0.158530
2017 *287 *308 0.001060
2018 *287 *41 0.129480
2019 *287 *301 0.014030
2020 *287 *300 0.344360
2021 *287 *299 0.092520
2022 *287 *298 0.090850
2023 *287 *633 0.003310
2024 *287 *297 0.085670
2025 *287 *535 0.046990
2026 *287 *568 0.105500
2027 *287 *293 0.128210
2028 *287 *292 0.141530
2029 *287 *291 0.099250
2030 *287 *290 0.096280
2031 *287 *289 0.093350
*END

*D_NET *34 3.519970
*CONN
*P *34 O
*CAP
2032 *34 *796 0.002340
2033 *34 *829 0.005430
2034 *34 *731 0.001690
2035 *34 *764 0.004030
2036 *34 *666 0.002160
2037 *34 *35 0.856860
2038 *34 *699 0.004790
2039 *34 *601 0.006780
2040 *34 *634 0.008630
2041 *34 *5 0.025870
2042 *34 *42 0.128860
2043 *34 *310 0.002280
2044 *34 *4 0.679600
2045 *34 *45 0.160330
2046 *34 *309 0.032390
2047 *34 *308 0.001680
2048 *34 *304 0.104310
2049 *34 *303 0.100080
2050 *34 *302 0.138060
2051 *34 *301 0.195500
2052 *34 *698 0.003500
2053 *34 *600 0.046990
2054 *34 *43 0.134570
2055 *34 *633 0.105460
2056 *34 *296 0.094380
2057 *34 *295 0.096960
2058 *34 *46 0.253590
2059 *34 *294 0.305190
2060 *34 *293 0.017660
*END

*D_NET *35 2.210030
*CONN
*P *35 O
*CAP
2061 *35 *309 0.055030
2062 *35 *36 0.571330
2063 *35 *308 0.001680
2064 *35 *304 0.094760
2065 *35 *303 0.115720
2066 *35 *763 0.003560
2067 *35 *302 0.163170
2068 *35 *665 0.046990
2069 *35 *698 0.105460
2070 *35 *43 0.010040
2071 *35 *296 0.086070
2072 *35 *295 0.238060
2073 *35 *46 0.001810
2074 *35 *294 0.012160
2075 *35 *829 0.001560
2076 *35 *764 0.001530
2077 *35 *666 0.006440
2078 *35 *699 0.007160
2079 *35 *37 0.001720
2080 *35 *5 0.001070
2081 *35 *4 0.682900
2082 *35 *45 0.001810
*END

*D_NET *36 1.663840
*CONN
*P *36 O
*CAP
2083 *36 *296 0.182880
2084 *36 *295 0.008900
2085 *36 *731 0.006390
2086 *36 *764 0.006750
2087 *36 *37 0.289160
2088 *36 *5 0.001240
2089 *36 *4 0.726110
2090 *36 *45 0.008200
2091 *36 *309 0.021070
2092 *36 *795 0.001550
2093 *36 *828 0.003990
2094 *36 *308 0.001770
2095 *36 *730 0.046990
2096 *36 *304 0.123020
2097 *36 *303 0.130360
2098 *36 *763 0.105460
*END

*D_NET *37 1.046440
*CONN
*P *37 O
*CAP
2099 *37 *4 0.761960
2100 *37 *309 0.007220
2101 *37 *795 0.046630
2102 *37 *828 0.105860
2103 *37 *304 0.098740
2104 *37 *296 0.005630
2105 *37 *46 0.007350
2106 *37 *796 0.006390
2107 *37 *829 0.006660
*END

*D_NET *38 1.673590
*CONN
*P *38 O
*CAP
2108 *38 *374 0.108310
2109 *38 *309 0.003260
2110 *38 *342 0.006390
2111 *38 *375 0.006660
2112 *38 *39 0.504770
2113 *38 *298 0.001940
2114 *38 *297 0.152040
2115 *38 *290 0.052200
2116 *38 *289 0.096600
2117 *38 *47 0.007350
2118 *38 *40 0.001720
2119 *38 *5 0.669880
2120 *38 *439 0.003200
2121 *38 *310 0.012770
2122 *38 *341 0.046500
*END

*D_NET *39 2.351060
*CONN
*P *39 O
*CAP
2123 *39 *299 0.003720
2124 *39 *298 0.220920
2125 *39 *297 0.094290
2126 *39 *291 0.078030
2127 *39 *290 0.111170
2128 *39 *289 0.099530
2129 *39 *40 0.787330
2130 *39 *5 0.712490
2131 *39 *504 0.003310
2132 *39 *406 0.047030
2133 *39 *439 0.106210
2134 *39 *310 0.062190
2135 *39 *309 0.002740
2136 *39 *407 0.007060
2137 *39 *48 0.008180
2138 *39 *440 0.006860
*END

*D_NET *40 2.880610
*CONN
*P *40 O
*CAP
2139 *40 *310 0.082970
2140 *40 *309 0.001060
2141 *40 *472 0.006880
2142 *40 *505 0.008640
2143 *40 *48 0.001810
2144 *40 *440 0.001560
2145 *40 *375 0.001970
2146 *40 *41 1.073400
2147 *40 *300 0.005500
2148 *40 *299 0.279760
2149 *40 *298 0.087060
2150 *40 *297 0.086610
2151 *40 *292 0.103140
2152 *40 *291 0.117990
2153 *40 *290 0.085900
2154 *40 *289 0.093430
2155 *40 *47 0.001810
2156 *40 *49 0.010010
2157 *40 *569 0.003310
2158 *40 *471 0.046980
2159 *40 *311 0.001690
2160 *40 *5 0.673580
2161 *40 *504 0.105550
*END

*D_NET *41 3.130840
*CONN
*P *41 O
*CAP
2162 *41 *301 0.014030
2163 *41 *300 0.344360
2164 *41 *299 0.092520
2165 *41 *298 0.090850
2166 *41 *297 0.085670
2167 *41 *293 0.128210
2168 *41 *292 0.141530
2169 *41 *291 0.099250
2170 *41 *290 0.096280
2171 *41 *289 0.093350
2172 *41 *47 0.471130
2173 *41 *49 0.132840
2174 *41 *6 0.029380
2175 *41 *634 0.003310
2176 *41 *536 0.046990
2177 *41 *569 0.105500
2178 *41 *311 0.003320
2179 *41 *5 0.671400
2180 *41 *42 0.124070
2181 *41 *310 0.028370
2182 *41 *309 0.001060
2183 *41 *635 0.001130
2184 *41 *537 0.008160
2185 *41 *570 0.012270
2186 *41 *472 0.001560
2187 *41 *505 0.004070
2188 *41 *407 0.001550
2189 *41 *48 0.158530
2190 *41 *440 0.004010
2191 *41 *342 0.002470
2192 *41 *50 0.129480
2193 *41 *375 0.004190
*END

*D_NET *42 3.519970
*CONN
*P *42 O
*CAP
2194 *42 *311 0.002280
2195 *42 *5 0.679600
2196 *42 *53 0.160330
2197 *42 *310 0.032390
2198 *42 *797 0.002340
2199 *42 *830 0.005430
2200 *42 *309 0.001680
2201 *42 *732 0.001690
2202 *42 *765 0.004030
2203 *42 *667 0.002160
2204 *42 *700 0.004790
2205 *42 *602 0.006780
2206 *42 *635 0.008630
2207 *42 *304 0.104310
2208 *42 *52 0.134570
2209 *42 *303 0.100080
2210 *42 *302 0.138060
2211 *42 *301 0.195500
2212 *42 *54 0.253590
2213 *42 *43 0.856860
2214 *42 *296 0.094380
2215 *42 *295 0.096960
2216 *42 *294 0.305190
2217 *42 *293 0.017660
2218 *42 *699 0.003500
2219 *42 *601 0.046990
2220 *42 *6 0.025870
2221 *42 *634 0.105460
2222 *42 *51 0.128860
*END

*D_NET *43 2.210030
*CONN
*P *43 O
*CAP
2223 *43 *304 0.094760
2224 *43 *52 0.010040
2225 *43 *303 0.115720
2226 *43 *302 0.163170
2227 *43 *54 0.001810
2228 *43 *296 0.086070
2229 *43 *295 0.238060
2230 *43 *46 0.001720
2231 *43 *294 0.012160
2232 *43 *764 0.003560
2233 *43 *666 0.046990
2234 *43 *699 0.105460
2235 *43 *6 0.001070
2236 *43 *5 0.682900
2237 *43 *53 0.001810
2238 *43 *310 0.055030
2239 *43 *45 0.571330
2240 *43 *830 0.001560
2241 *43 *309 0.001680
2242 *43 *765 0.001530
2243 *43 *667 0.006440
2244 *43 *700 0.007160
*END

*D_NET *45 1.663840
*CONN
*P *45 O
*CAP
2245 *45 *6 0.001240
2246 *45 *5 0.726110
2247 *45 *53 0.008200
2248 *45 *310 0.021070
2249 *45 *309 0.001770
2250 *45 *732 0.006390
2251 *45 *765 0.006750
2252 *45 *304 0.123020
2253 *45 *303 0.130360
2254 *45 *296 0.182880
2255 *45 *295 0.008900
2256 *45 *46 0.289160
2257 *45 *796 0.001550
2258 *45 *829 0.003990
2259 *45 *731 0.046990
2260 *45 *764 0.105460
*END

*D_NET *46 1.046440
*CONN
*P *46 O
*CAP
2261 *46 *304 0.098740
2262 *46 *54 0.007350
2263 *46 *296 0.005630
2264 *46 *796 0.046630
2265 *46 *829 0.105860
2266 *46 *5 0.761960
2267 *46 *310 0.007220
2268 *46 *797 0.006390
2269 *46 *830 0.006660
*END

*D_NET *47 1.673590
*CONN
*P *47 O
*CAP
2270 *47 *48 0.504770
2271 *47 *440 0.003200
2272 *47 *342 0.046500
2273 *47 *375 0.108310
2274 *47 *298 0.001940
2275 *47 *297 0.152040
2276 *47 *290 0.052200
2277 *47 *289 0.096600
2278 *47 *344 0.006390
2279 *47 *56 0.007350
2280 *47 *376 0.006660
2281 *47 *49 0.001720
2282 *47 *6 0.669880
2283 *47 *311 0.012770
2284 *47 *310 0.003260
*END

*D_NET *48 2.351060
*CONN
*P *48 O
*CAP
2285 *48 *291 0.078030
2286 *48 *290 0.111170
2287 *48 *409 0.007060
2288 *48 *289 0.099530
2289 *48 *441 0.006860
2290 *48 *49 0.787330
2291 *48 *6 0.712490
2292 *48 *311 0.062190
2293 *48 *310 0.002740
2294 *48 *57 0.008180
2295 *48 *505 0.003310
2296 *48 *407 0.047030
2297 *48 *440 0.106210
2298 *48 *299 0.003720
2299 *48 *298 0.220920
2300 *48 *297 0.094290
*END

*D_NET *49 2.880610
*CONN
*P *49 O
*CAP
2301 *49 *57 0.001810
2302 *49 *570 0.003310
2303 *49 *472 0.046980
2304 *49 *505 0.105550
2305 *49 *50 1.073400
2306 *49 *300 0.005500
2307 *49 *299 0.279760
2308 *49 *298 0.087060
2309 *49 *297 0.086610
2310 *49 *474 0.006880
2311 *49 *292 0.103140
2312 *49 *291 0.117990
2313 *49 *506 0.008640
2314 *49 *290 0.085900
2315 *49 *289 0.093430
2316 *49 *441 0.001560
2317 *49 *56 0.001810
2318 *49 *376 0.001970
2319 *49 *58 0.010010
2320 *49 *312 0.001690
2321 *49 *6 0.673580
2322 *49 *311 0.082970
2323 *49 *310 0.001060
*END

*D_NET *50 3.130840
*CONN
*P *50 O
*CAP
2324 *50 *297 0.085670
2325 *50 *636 0.001130
2326 *50 *539 0.008160
2327 *50 *571 0.012270
2328 *50 *293 0.128210
2329 *50 *474 0.001560
2330 *50 *292 0.141530
2331 *50 *291 0.099250
2332 *50 *506 0.004070
2333 *50 *290 0.096280
2334 *50 *409 0.001550
2335 *50 *289 0.093350
2336 *50 *441 0.004010
2337 *50 *344 0.002470
2338 *50 *56 0.471130
2339 *50 *376 0.004190
2340 *50 *58 0.132840
2341 *50 *7 0.029380
2342 *50 *312 0.003320
2343 *50 *6 0.671400
2344 *50 *51 0.124070
2345 *50 *311 0.028370
2346 *50 *310 0.001060
2347 *50 *635 0.003310
2348 *50 *537 0.046990
2349 *50 *57 0.158530
2350 *50 *570 0.105500
2351 *50 *59 0.129480
2352 *50 *301 0.014030
2353 *50 *300 0.344360
2354 *50 *299 0.092520
2355 *50 *298 0.090850
*END

*D_NET *51 3.519970
*CONN
*P *51 O
*CAP
2356 *51 *310 0.001680
2357 *51 *700 0.003500
2358 *51 *602 0.046990
2359 *51 *635 0.105460
2360 *51 *61 0.134570
2361 *51 *799 0.002340
2362 *51 *63 0.253590
2363 *51 *831 0.005430
2364 *51 *304 0.104310
2365 *51 *52 0.856860
2366 *51 *303 0.100080
2367 *51 *734 0.001690
2368 *51 *302 0.138060
2369 *51 *766 0.004030
2370 *51 *301 0.195500
2371 *51 *669 0.002160
2372 *51 *701 0.004790
2373 *51 *604 0.006780
2374 *51 *636 0.008630
2375 *51 *296 0.094380
2376 *51 *295 0.096960
2377 *51 *294 0.305190
2378 *51 *293 0.017660
2379 *51 *7 0.025870
2380 *51 *60 0.128860
2381 *51 *312 0.002280
2382 *51 *6 0.679600
2383 *51 *62 0.160330
2384 *51 *311 0.032390
*END

*D_NET *52 2.210030
*CONN
*P *52 O
*CAP
2385 *52 *669 0.006440
2386 *52 *54 0.001720
2387 *52 *701 0.007160
2388 *52 *296 0.086070
2389 *52 *295 0.238060
2390 *52 *294 0.012160
2391 *52 *7 0.001070
2392 *52 *6 0.682900
2393 *52 *62 0.001810
2394 *52 *311 0.055030
2395 *52 *53 0.571330
2396 *52 *310 0.001680
2397 *52 *765 0.003560
2398 *52 *667 0.046990
2399 *52 *700 0.105460
2400 *52 *61 0.010040
2401 *52 *63 0.001810
2402 *52 *831 0.001560
2403 *52 *304 0.094760
2404 *52 *303 0.115720
2405 *52 *302 0.163170
2406 *52 *766 0.001530
*END

*D_NET *53 1.663840
*CONN
*P *53 O
*CAP
2407 *53 *310 0.001770
2408 *53 *797 0.001550
2409 *53 *830 0.003990
2410 *53 *732 0.046990
2411 *53 *765 0.105460
2412 *53 *304 0.123020
2413 *53 *303 0.130360
2414 *53 *734 0.006390
2415 *53 *766 0.006750
2416 *53 *54 0.289160
2417 *53 *296 0.182880
2418 *53 *295 0.008900
2419 *53 *7 0.001240
2420 *53 *6 0.726110
2421 *53 *62 0.008200
2422 *53 *311 0.021070
*END

*D_NET *54 1.046440
*CONN
*P *54 O
*CAP
2423 *54 *831 0.006660
2424 *54 *304 0.098740
2425 *54 *296 0.005630
2426 *54 *6 0.761960
2427 *54 *311 0.007220
2428 *54 *797 0.046630
2429 *54 *830 0.105860
2430 *54 *799 0.006390
2431 *54 *63 0.007350
*END

*D_NET *56 1.673590
*CONN
*P *56 O
*CAP
2432 *56 *57 0.504770
2433 *56 *298 0.001940
2434 *56 *297 0.152040
2435 *56 *64 0.007350
2436 *56 *290 0.052200
2437 *56 *289 0.096600
2438 *56 *441 0.003200
2439 *56 *344 0.046500
2440 *56 *376 0.108310
2441 *56 *58 0.001720
2442 *56 *7 0.669880
2443 *56 *312 0.012770
2444 *56 *311 0.003260
2445 *56 *345 0.006390
2446 *56 *377 0.006660
*END

*D_NET *57 2.351060
*CONN
*P *57 O
*CAP
2447 *57 *289 0.099530
2448 *57 *441 0.106210
2449 *57 *58 0.787330
2450 *57 *7 0.712490
2451 *57 *312 0.062190
2452 *57 *311 0.002740
2453 *57 *410 0.007060
2454 *57 *442 0.006860
2455 *57 *65 0.008180
2456 *57 *299 0.003720
2457 *57 *298 0.220920
2458 *57 *297 0.094290
2459 *57 *291 0.078030
2460 *57 *506 0.003310
2461 *57 *290 0.111170
2462 *57 *409 0.047030
*END

*D_NET *58 2.880610
*CONN
*P *58 O
*CAP
2463 *58 *65 0.001810
2464 *58 *59 1.073400
2465 *58 *300 0.005500
2466 *58 *299 0.279760
2467 *58 *298 0.087060
2468 *58 *297 0.086610
2469 *58 *571 0.003310
2470 *58 *474 0.046980
2471 *58 *292 0.103140
2472 *58 *64 0.001810
2473 *58 *291 0.117990
2474 *58 *506 0.105550
2475 *58 *290 0.085900
2476 *58 *289 0.093430
2477 *58 *67 0.010010
2478 *58 *313 0.001690
2479 *58 *7 0.673580
2480 *58 *312 0.082970
2481 *58 *311 0.001060
2482 *58 *475 0.006880
2483 *58 *507 0.008640
2484 *58 *442 0.001560
2485 *58 *377 0.001970
*END

*D_NET *59 3.130840
*CONN
*P *59 O
*CAP
2486 *59 *292 0.141530
2487 *59 *64 0.471130
2488 *59 *291 0.099250
2489 *59 *290 0.096280
2490 *59 *289 0.093350
2491 *59 *67 0.132840
2492 *59 *8 0.029380
2493 *59 *313 0.003320
2494 *59 *7 0.671400
2495 *59 *60 0.124070
2496 *59 *312 0.028370
2497 *59 *637 0.001130
2498 *59 *540 0.008160
2499 *59 *572 0.012270
2500 *59 *311 0.001060
2501 *59 *475 0.001560
2502 *59 *507 0.004070
2503 *59 *410 0.001550
2504 *59 *442 0.004010
2505 *59 *345 0.002470
2506 *59 *377 0.004190
2507 *59 *65 0.158530
2508 *59 *68 0.129480
2509 *59 *301 0.014030
2510 *59 *300 0.344360
2511 *59 *299 0.092520
2512 *59 *298 0.090850
2513 *59 *297 0.085670
2514 *59 *636 0.003310
2515 *59 *539 0.046990
2516 *59 *571 0.105500
2517 *59 *293 0.128210
*END

*D_NET *60 3.519970
*CONN
*P *60 O
*CAP
2518 *60 *70 0.134570
2519 *60 *72 0.253590
2520 *60 *61 0.856860
2521 *60 *304 0.104310
2522 *60 *303 0.100080
2523 *60 *302 0.138060
2524 *60 *301 0.195500
2525 *60 *701 0.003500
2526 *60 *604 0.046990
2527 *60 *636 0.105460
2528 *60 *296 0.094380
2529 *60 *295 0.096960
2530 *60 *294 0.305190
2531 *60 *293 0.017660
2532 *60 *8 0.025870
2533 *60 *69 0.128860
2534 *60 *800 0.002340
2535 *60 *832 0.005430
2536 *60 *313 0.002280
2537 *60 *7 0.679600
2538 *60 *735 0.001690
2539 *60 *71 0.160330
2540 *60 *767 0.004030
2541 *60 *670 0.002160
2542 *60 *702 0.004790
2543 *60 *312 0.032390
2544 *60 *605 0.006780
2545 *60 *637 0.008630
2546 *60 *311 0.001680
*END

*D_NET *61 2.210030
*CONN
*P *61 O
*CAP
2547 *61 *296 0.086070
2548 *61 *295 0.238060
2549 *61 *294 0.012160
2550 *61 *8 0.001070
2551 *61 *832 0.001560
2552 *61 *7 0.682900
2553 *61 *71 0.001810
2554 *61 *767 0.001530
2555 *61 *670 0.006440
2556 *61 *702 0.007160
2557 *61 *312 0.055030
2558 *61 *62 0.571330
2559 *61 *311 0.001680
2560 *61 *70 0.010040
2561 *61 *72 0.001810
2562 *61 *63 0.001720
2563 *61 *304 0.094760
2564 *61 *303 0.115720
2565 *61 *302 0.163170
2566 *61 *766 0.003560
2567 *61 *669 0.046990
2568 *61 *701 0.105460
*END

*D_NET *62 1.663840
*CONN
*P *62 O
*CAP
2569 *62 *799 0.001550
2570 *62 *63 0.289160
2571 *62 *831 0.003990
2572 *62 *304 0.123020
2573 *62 *303 0.130360
2574 *62 *734 0.046990
2575 *62 *766 0.105460
2576 *62 *296 0.182880
2577 *62 *295 0.008900
2578 *62 *8 0.001240
2579 *62 *7 0.726110
2580 *62 *735 0.006390
2581 *62 *71 0.008200
2582 *62 *767 0.006750
2583 *62 *312 0.021070
2584 *62 *311 0.001770
*END

*D_NET *63 1.046440
*CONN
*P *63 O
*CAP
2585 *63 *296 0.005630
2586 *63 *800 0.006390
2587 *63 *832 0.006660
2588 *63 *7 0.761960
2589 *63 *312 0.007220
2590 *63 *72 0.007350
2591 *63 *799 0.046630
2592 *63 *831 0.105860
2593 *63 *304 0.098740
*END

*D_NET *64 1.673590
*CONN
*P *64 O
*CAP
2594 *64 *346 0.006390
2595 *64 *378 0.006660
2596 *64 *298 0.001940
2597 *64 *297 0.152040
2598 *64 *73 0.007350
2599 *64 *290 0.052200
2600 *64 *289 0.096600
2601 *64 *67 0.001720
2602 *64 *8 0.669880
2603 *64 *313 0.012770
2604 *64 *312 0.003260
2605 *64 *442 0.003200
2606 *64 *345 0.046500
2607 *64 *377 0.108310
2608 *64 *65 0.504770
*END

*D_NET *65 2.351060
*CONN
*P *65 O
*CAP
2609 *65 *313 0.062190
2610 *65 *312 0.002740
2611 *65 *507 0.003310
2612 *65 *410 0.047030
2613 *65 *442 0.106210
2614 *65 *74 0.008180
2615 *65 *411 0.007060
2616 *65 *443 0.006860
2617 *65 *299 0.003720
2618 *65 *298 0.220920
2619 *65 *297 0.094290
2620 *65 *291 0.078030
2621 *65 *290 0.111170
2622 *65 *289 0.099530
2623 *65 *67 0.787330
2624 *65 *8 0.712490
*END

*D_NET *67 2.880610
*CONN
*P *67 O
*CAP
2625 *67 *476 0.006880
2626 *67 *508 0.008640
2627 *67 *443 0.001560
2628 *67 *378 0.001970
2629 *67 *300 0.005500
2630 *67 *299 0.279760
2631 *67 *298 0.087060
2632 *67 *297 0.086610
2633 *67 *73 0.001810
2634 *67 *75 0.010010
2635 *67 *292 0.103140
2636 *67 *291 0.117990
2637 *67 *290 0.085900
2638 *67 *289 0.093430
2639 *67 *314 0.001690
2640 *67 *8 0.673580
2641 *67 *313 0.082970
2642 *67 *312 0.001060
2643 *67 *572 0.003310
2644 *67 *475 0.046980
2645 *67 *507 0.105550
2646 *67 *74 0.001810
2647 *67 *68 1.073400
*END

*D_NET *68 3.130840
*CONN
*P *68 O
*CAP
2648 *68 *8 0.671400
2649 *68 *69 0.124070
2650 *68 *313 0.028370
2651 *68 *312 0.001060
2652 *68 *637 0.003310
2653 *68 *540 0.046990
2654 *68 *572 0.105500
2655 *68 *74 0.158530
2656 *68 *76 0.129480
2657 *68 *638 0.001130
2658 *68 *541 0.008160
2659 *68 *573 0.012270
2660 *68 *476 0.001560
2661 *68 *508 0.004070
2662 *68 *411 0.001550
2663 *68 *443 0.004010
2664 *68 *346 0.002470
2665 *68 *378 0.004190
2666 *68 *301 0.014030
2667 *68 *300 0.344360
2668 *68 *299 0.092520
2669 *68 *298 0.090850
2670 *68 *297 0.085670
2671 *68 *73 0.471130
2672 *68 *75 0.132840
2673 *68 *293 0.128210
2674 *68 *9 0.029380
2675 *68 *292 0.141530
2676 *68 *291 0.099250
2677 *68 *290 0.096280
2678 *68 *289 0.093350
2679 *68 *314 0.003320
*END

*D_NET *69 3.519970
*CONN
*P *69 O
*CAP
2680 *69 *671 0.002160
2681 *69 *79 0.134570
2682 *69 *703 0.004790
2683 *69 *606 0.006780
2684 *69 *638 0.008630
2685 *69 *81 0.253590
2686 *69 *70 0.856860
2687 *69 *304 0.104310
2688 *69 *303 0.100080
2689 *69 *302 0.138060
2690 *69 *301 0.195500
2691 *69 *296 0.094380
2692 *69 *295 0.096960
2693 *69 *294 0.305190
2694 *69 *293 0.017660
2695 *69 *9 0.025870
2696 *69 *78 0.128860
2697 *69 *314 0.002280
2698 *69 *8 0.679600
2699 *69 *80 0.160330
2700 *69 *313 0.032390
2701 *69 *702 0.003500
2702 *69 *312 0.001680
2703 *69 *605 0.046990
2704 *69 *637 0.105460
2705 *69 *801 0.002340
2706 *69 *833 0.005430
2707 *69 *736 0.001690
2708 *69 *768 0.004030
*END

*D_NET *70 2.210030
*CONN
*P *70 O
*CAP
2709 *70 *8 0.682900
2710 *70 *80 0.001810
2711 *70 *313 0.055030
2712 *70 *71 0.571330
2713 *70 *767 0.003560
2714 *70 *670 0.046990
2715 *70 *702 0.105460
2716 *70 *312 0.001680
2717 *70 *833 0.001560
2718 *70 *768 0.001530
2719 *70 *671 0.006440
2720 *70 *79 0.010040
2721 *70 *703 0.007160
2722 *70 *81 0.001810
2723 *70 *72 0.001720
2724 *70 *304 0.094760
2725 *70 *303 0.115720
2726 *70 *302 0.163170
2727 *70 *296 0.086070
2728 *70 *295 0.238060
2729 *70 *294 0.012160
2730 *70 *9 0.001070
*END

*D_NET *71 1.663840
*CONN
*P *71 O
*CAP
2731 *71 *736 0.006390
2732 *71 *768 0.006750
2733 *71 *72 0.289160
2734 *71 *304 0.123020
2735 *71 *303 0.130360
2736 *71 *296 0.182880
2737 *71 *295 0.008900
2738 *71 *9 0.001240
2739 *71 *8 0.726110
2740 *71 *80 0.008200
2741 *71 *800 0.001550
2742 *71 *832 0.003990
2743 *71 *313 0.021070
2744 *71 *735 0.046990
2745 *71 *767 0.105460
2746 *71 *312 0.001770
*END

*D_NET *72 1.046440
*CONN
*P *72 O
*CAP
2747 *72 *8 0.761960
2748 *72 *800 0.046630
2749 *72 *832 0.105860
2750 *72 *313 0.007220
2751 *72 *801 0.006390
2752 *72 *833 0.006660
2753 *72 *81 0.007350
2754 *72 *304 0.098740
2755 *72 *296 0.005630
*END

*D_NET *73 1.673590
*CONN
*P *73 O
*CAP
2756 *73 *346 0.046500
2757 *73 *378 0.108310
2758 *73 *82 0.007350
2759 *73 *298 0.001940
2760 *73 *297 0.152040
2761 *73 *75 0.001720
2762 *73 *9 0.669880
2763 *73 *290 0.052200
2764 *73 *289 0.096600
2765 *73 *314 0.012770
2766 *73 *347 0.006390
2767 *73 *379 0.006660
2768 *73 *313 0.003260
2769 *73 *74 0.504770
2770 *73 *443 0.003200
*END

*D_NET *74 2.351060
*CONN
*P *74 O
*CAP
2771 *74 *83 0.008180
2772 *74 *508 0.003310
2773 *74 *411 0.047030
2774 *74 *443 0.106210
2775 *74 *299 0.003720
2776 *74 *298 0.220920
2777 *74 *297 0.094290
2778 *74 *75 0.787330
2779 *74 *9 0.712490
2780 *74 *291 0.078030
2781 *74 *290 0.111170
2782 *74 *289 0.099530
2783 *74 *412 0.007060
2784 *74 *314 0.062190
2785 *74 *444 0.006860
2786 *74 *313 0.002740
*END

*D_NET *75 2.880610
*CONN
*P *75 O
*CAP
2787 *75 *508 0.105550
2788 *75 *82 0.001810
2789 *75 *300 0.005500
2790 *75 *299 0.279760
2791 *75 *84 0.010010
2792 *75 *298 0.087060
2793 *75 *297 0.086610
2794 *75 *315 0.001690
2795 *75 *9 0.673580
2796 *75 *292 0.103140
2797 *75 *477 0.006880
2798 *75 *291 0.117990
2799 *75 *290 0.085900
2800 *75 *509 0.008640
2801 *75 *289 0.093430
2802 *75 *314 0.082970
2803 *75 *444 0.001560
2804 *75 *379 0.001970
2805 *75 *313 0.001060
2806 *75 *83 0.001810
2807 *75 *76 1.073400
2808 *75 *573 0.003310
2809 *75 *476 0.046980
*END

*D_NET *76 3.130840
*CONN
*P *76 O
*CAP
2810 *76 *83 0.158530
2811 *76 *85 0.129480
2812 *76 *638 0.003310
2813 *76 *541 0.046990
2814 *76 *573 0.105500
2815 *76 *82 0.471130
2816 *76 *301 0.014030
2817 *76 *300 0.344360
2818 *76 *299 0.092520
2819 *76 *84 0.132840
2820 *76 *298 0.090850
2821 *76 *10 0.029380
2822 *76 *297 0.085670
2823 *76 *639 0.001130
2824 *76 *542 0.008160
2825 *76 *293 0.128210
2826 *76 *315 0.003320
2827 *76 *574 0.012270
2828 *76 *9 0.671400
2829 *76 *292 0.141530
2830 *76 *477 0.001560
2831 *76 *291 0.099250
2832 *76 *290 0.096280
2833 *76 *509 0.004070
2834 *76 *78 0.124070
2835 *76 *289 0.093350
2836 *76 *412 0.001550
2837 *76 *314 0.028370
2838 *76 *444 0.004010
2839 *76 *347 0.002470
2840 *76 *379 0.004190
2841 *76 *313 0.001060
*END

*D_NET *78 3.519970
*CONN
*P *78 O
*CAP
2842 *78 *802 0.002340
2843 *78 *304 0.104310
2844 *78 *834 0.005430
2845 *78 *303 0.100080
2846 *78 *302 0.138060
2847 *78 *737 0.001690
2848 *78 *301 0.195500
2849 *78 *769 0.004030
2850 *78 *672 0.002160
2851 *78 *704 0.004790
2852 *78 *10 0.025870
2853 *78 *607 0.006780
2854 *78 *296 0.094380
2855 *78 *639 0.008630
2856 *78 *295 0.096960
2857 *78 *86 0.128860
2858 *78 *294 0.305190
2859 *78 *293 0.017660
2860 *78 *315 0.002280
2861 *78 *9 0.679600
2862 *78 *89 0.160330
2863 *78 *314 0.032390
2864 *78 *313 0.001680
2865 *78 *87 0.134570
2866 *78 *90 0.253590
2867 *78 *79 0.856860
2868 *78 *703 0.003500
2869 *78 *606 0.046990
2870 *78 *638 0.105460
*END

*D_NET *79 2.210030
*CONN
*P *79 O
*CAP
2871 *79 *313 0.001680
2872 *79 *87 0.010040
2873 *79 *768 0.003560
2874 *79 *90 0.001810
2875 *79 *671 0.046990
2876 *79 *703 0.105460
2877 *79 *81 0.001720
2878 *79 *304 0.094760
2879 *79 *834 0.001560
2880 *79 *303 0.115720
2881 *79 *302 0.163170
2882 *79 *769 0.001530
2883 *79 *672 0.006440
2884 *79 *704 0.007160
2885 *79 *10 0.001070
2886 *79 *296 0.086070
2887 *79 *295 0.238060
2888 *79 *294 0.012160
2889 *79 *9 0.682900
2890 *79 *89 0.001810
2891 *79 *314 0.055030
2892 *79 *80 0.571330
*END

*D_NET *80 1.663840
*CONN
*P *80 O
*CAP
2893 *80 *81 0.289160
2894 *80 *304 0.123020
2895 *80 *303 0.130360
2896 *80 *737 0.006390
2897 *80 *769 0.006750
2898 *80 *10 0.001240
2899 *80 *296 0.182880
2900 *80 *295 0.008900
2901 *80 *9 0.726110
2902 *80 *89 0.008200
2903 *80 *314 0.021070
2904 *80 *313 0.001770
2905 *80 *801 0.001550
2906 *80 *833 0.003990
2907 *80 *736 0.046990
2908 *80 *768 0.105460
*END

*D_NET *81 1.046440
*CONN
*P *81 O
*CAP
2909 *81 *314 0.007220
2910 *81 *801 0.046630
2911 *81 *833 0.105860
2912 *81 *90 0.007350
2913 *81 *802 0.006390
2914 *81 *304 0.098740
2915 *81 *834 0.006660
2916 *81 *296 0.005630
2917 *81 *9 0.761960
*END

*D_NET *82 1.673590
*CONN
*P *82 O
*CAP
2918 *82 *84 0.001720
2919 *82 *298 0.001940
2920 *82 *10 0.669880
2921 *82 *297 0.152040
2922 *82 *315 0.012770
2923 *82 *290 0.052200
2924 *82 *289 0.096600
2925 *82 *314 0.003260
2926 *82 *444 0.003200
2927 *82 *347 0.046500
2928 *82 *379 0.108310
2929 *82 *83 0.504770
2930 *82 *348 0.006390
2931 *82 *381 0.006660
2932 *82 *91 0.007350
*END

*D_NET *83 2.351060
*CONN
*P *83 O
*CAP
2933 *83 *413 0.007060
2934 *83 *446 0.006860
2935 *83 *299 0.003720
2936 *83 *84 0.787330
2937 *83 *298 0.220920
2938 *83 *10 0.712490
2939 *83 *297 0.094290
2940 *83 *315 0.062190
2941 *83 *291 0.078030
2942 *83 *290 0.111170
2943 *83 *509 0.003310
2944 *83 *289 0.099530
2945 *83 *412 0.047030
2946 *83 *314 0.002740
2947 *83 *444 0.106210
2948 *83 *92 0.008180
*END

*D_NET *84 2.880610
*CONN
*P *84 O
*CAP
2949 *84 *93 0.010010
2950 *84 *300 0.005500
2951 *84 *299 0.279760
2952 *84 *317 0.001690
2953 *84 *298 0.087060
2954 *84 *10 0.673580
2955 *84 *297 0.086610
2956 *84 *315 0.082970
2957 *84 *574 0.003310
2958 *84 *292 0.103140
2959 *84 *477 0.046980
2960 *84 *291 0.117990
2961 *84 *290 0.085900
2962 *84 *509 0.105550
2963 *84 *289 0.093430
2964 *84 *314 0.001060
2965 *84 *92 0.001810
2966 *84 *478 0.006880
2967 *84 *511 0.008640
2968 *84 *446 0.001560
2969 *84 *85 1.073400
2970 *84 *381 0.001970
2971 *84 *91 0.001810
*END

*D_NET *85 3.130840
*CONN
*P *85 O
*CAP
2972 *85 *92 0.158530
2973 *85 *641 0.001130
2974 *85 *543 0.008160
2975 *85 *576 0.012270
2976 *85 *94 0.129480
2977 *85 *478 0.001560
2978 *85 *511 0.004070
2979 *85 *413 0.001550
2980 *85 *446 0.004010
2981 *85 *348 0.002470
2982 *85 *381 0.004190
2983 *85 *91 0.471130
2984 *85 *93 0.132840
2985 *85 *11 0.029380
2986 *85 *301 0.014030
2987 *85 *300 0.344360
2988 *85 *299 0.092520
2989 *85 *317 0.003320
2990 *85 *298 0.090850
2991 *85 *10 0.671400
2992 *85 *297 0.085670
2993 *85 *639 0.003310
2994 *85 *86 0.124070
2995 *85 *542 0.046990
2996 *85 *293 0.128210
2997 *85 *315 0.028370
2998 *85 *574 0.105500
2999 *85 *292 0.141530
3000 *85 *291 0.099250
3001 *85 *290 0.096280
3002 *85 *289 0.093350
3003 *85 *314 0.001060
*END

*D_NET *86 3.519970
*CONN
*P *86 O
*CAP
3004 *86 *304 0.104310
3005 *86 *303 0.100080
3006 *86 *11 0.025870
3007 *86 *302 0.138060
3008 *86 *301 0.195500
3009 *86 *95 0.128860
3010 *86 *317 0.002280
3011 *86 *704 0.003500
3012 *86 *10 0.679600
3013 *86 *97 0.160330
3014 *86 *607 0.046990
3015 *86 *296 0.094380
3016 *86 *639 0.105460
3017 *86 *295 0.096960
3018 *86 *294 0.305190
3019 *86 *293 0.017660
3020 *86 *315 0.032390
3021 *86 *314 0.001680
3022 *86 *803 0.002340
3023 *86 *836 0.005430
3024 *86 *738 0.001690
3025 *86 *771 0.004030
3026 *86 *673 0.002160
3027 *86 *706 0.004790
3028 *86 *608 0.006780
3029 *86 *641 0.008630
3030 *86 *96 0.134570
3031 *86 *98 0.253590
3032 *86 *87 0.856860
*END

*D_NET *87 2.210030
*CONN
*P *87 O
*CAP
3033 *87 *771 0.001530
3034 *87 *673 0.006440
3035 *87 *706 0.007160
3036 *87 *96 0.010040
3037 *87 *98 0.001810
3038 *87 *90 0.001720
3039 *87 *304 0.094760
3040 *87 *303 0.115720
3041 *87 *11 0.001070
3042 *87 *302 0.163170
3043 *87 *769 0.003560
3044 *87 *672 0.046990
3045 *87 *704 0.105460
3046 *87 *10 0.682900
3047 *87 *97 0.001810
3048 *87 *296 0.086070
3049 *87 *295 0.238060
3050 *87 *294 0.012160
3051 *87 *315 0.055030
3052 *87 *89 0.571330
3053 *87 *314 0.001680
3054 *87 *836 0.001560
*END

*D_NET *89 1.663840
*CONN
*P *89 O
*CAP
3055 *89 *802 0.001550
3056 *89 *304 0.123020
3057 *89 *834 0.003990
3058 *89 *303 0.130360
3059 *89 *11 0.001240
3060 *89 *737 0.046990
3061 *89 *769 0.105460
3062 *89 *10 0.726110
3063 *89 *97 0.008200
3064 *89 *296 0.182880
3065 *89 *295 0.008900
3066 *89 *315 0.021070
3067 *89 *314 0.001770
3068 *89 *738 0.006390
3069 *89 *771 0.006750
3070 *89 *90 0.289160
*END

*D_NET *90 1.046440
*CONN
*P *90 O
*CAP
3071 *90 *803 0.006390
3072 *90 *836 0.006660
3073 *90 *98 0.007350
3074 *90 *802 0.046630
3075 *90 *304 0.098740
3076 *90 *834 0.105860
3077 *90 *10 0.761960
3078 *90 *296 0.005630
3079 *90 *315 0.007220
*END

*D_NET *91 1.673590
*CONN
*P *91 O
*CAP
3080 *91 *297 0.152040
3081 *91 *315 0.003260
3082 *91 *290 0.052200
3083 *91 *289 0.096600
3084 *91 *92 0.504770
3085 *91 *446 0.003200
3086 *91 *348 0.046500
3087 *91 *381 0.108310
3088 *91 *100 0.007350
3089 *91 *349 0.006390
3090 *91 *382 0.006660
3091 *91 *93 0.001720
3092 *91 *11 0.669880
3093 *91 *317 0.012770
3094 *91 *298 0.001940
*END

*D_NET *92 2.351060
*CONN
*P *92 O
*CAP
3095 *92 *413 0.047030
3096 *92 *446 0.106210
3097 *92 *414 0.007060
3098 *92 *447 0.006860
3099 *92 *93 0.787330
3100 *92 *11 0.712490
3101 *92 *299 0.003720
3102 *92 *317 0.062190
3103 *92 *298 0.220920
3104 *92 *297 0.094290
3105 *92 *315 0.002740
3106 *92 *291 0.078030
3107 *92 *290 0.111170
3108 *92 *289 0.099530
3109 *92 *101 0.008180
3110 *92 *511 0.003310
*END

*D_NET *93 2.880610
*CONN
*P *93 O
*CAP
3111 *93 *300 0.005500
3112 *93 *299 0.279760
3113 *93 *317 0.082970
3114 *93 *298 0.087060
3115 *93 *297 0.086610
3116 *93 *315 0.001060
3117 *93 *292 0.103140
3118 *93 *291 0.117990
3119 *93 *290 0.085900
3120 *93 *289 0.093430
3121 *93 *101 0.001810
3122 *93 *576 0.003310
3123 *93 *94 1.073400
3124 *93 *478 0.046980
3125 *93 *511 0.105550
3126 *93 *100 0.001810
3127 *93 *479 0.006880
3128 *93 *512 0.008640
3129 *93 *102 0.010010
3130 *93 *447 0.001560
3131 *93 *382 0.001970
3132 *93 *318 0.001690
3133 *93 *11 0.673580
*END

*D_NET *94 3.130840
*CONN
*P *94 O
*CAP
3134 *94 *576 0.105500
3135 *94 *642 0.001130
3136 *94 *544 0.008160
3137 *94 *577 0.012270
3138 *94 *100 0.471130
3139 *94 *479 0.001560
3140 *94 *512 0.004070
3141 *94 *102 0.132840
3142 *94 *414 0.001550
3143 *94 *13 0.029380
3144 *94 *447 0.004010
3145 *94 *349 0.002470
3146 *94 *382 0.004190
3147 *94 *318 0.003320
3148 *94 *11 0.671400
3149 *94 *301 0.014030
3150 *94 *300 0.344360
3151 *94 *95 0.124070
3152 *94 *299 0.092520
3153 *94 *317 0.028370
3154 *94 *298 0.090850
3155 *94 *297 0.085670
3156 *94 *293 0.128210
3157 *94 *315 0.001060
3158 *94 *292 0.141530
3159 *94 *291 0.099250
3160 *94 *290 0.096280
3161 *94 *289 0.093350
3162 *94 *101 0.158530
3163 *94 *103 0.129480
3164 *94 *641 0.003310
3165 *94 *543 0.046990
*END

*D_NET *95 3.519970
*CONN
*P *95 O
*CAP
3166 *95 *304 0.104310
3167 *95 *318 0.002280
3168 *95 *303 0.100080
3169 *95 *11 0.679600
3170 *95 *302 0.138060
3171 *95 *106 0.160330
3172 *95 *301 0.195500
3173 *95 *317 0.032390
3174 *95 *296 0.094380
3175 *95 *295 0.096960
3176 *95 *294 0.305190
3177 *95 *293 0.017660
3178 *95 *315 0.001680
3179 *95 *706 0.003500
3180 *95 *608 0.046990
3181 *95 *641 0.105460
3182 *95 *105 0.134570
3183 *95 *107 0.253590
3184 *95 *96 0.856860
3185 *95 *804 0.002340
3186 *95 *837 0.005430
3187 *95 *739 0.001690
3188 *95 *772 0.004030
3189 *95 *674 0.002160
3190 *95 *707 0.004790
3191 *95 *609 0.006780
3192 *95 *642 0.008630
3193 *95 *13 0.025870
3194 *95 *104 0.128860
*END

*D_NET *96 2.210030
*CONN
*P *96 O
*CAP
3195 *96 *105 0.010040
3196 *96 *107 0.001810
3197 *96 *98 0.001720
3198 *96 *837 0.001560
3199 *96 *772 0.001530
3200 *96 *674 0.006440
3201 *96 *707 0.007160
3202 *96 *13 0.001070
3203 *96 *304 0.094760
3204 *96 *303 0.115720
3205 *96 *11 0.682900
3206 *96 *302 0.163170
3207 *96 *106 0.001810
3208 *96 *317 0.055030
3209 *96 *97 0.571330
3210 *96 *296 0.086070
3211 *96 *295 0.238060
3212 *96 *294 0.012160
3213 *96 *315 0.001680
3214 *96 *771 0.003560
3215 *96 *673 0.046990
3216 *96 *706 0.105460
*END

*D_NET *97 1.663840
*CONN
*P *97 O
*CAP
3217 *97 *13 0.001240
3218 *97 *304 0.123020
3219 *97 *303 0.130360
3220 *97 *11 0.726110
3221 *97 *106 0.008200
3222 *97 *317 0.021070
3223 *97 *296 0.182880
3224 *97 *295 0.008900
3225 *97 *315 0.001770
3226 *97 *803 0.001550
3227 *97 *836 0.003990
3228 *97 *738 0.046990
3229 *97 *771 0.105460
3230 *97 *98 0.289160
3231 *97 *739 0.006390
3232 *97 *772 0.006750
*END

*D_NET *98 1.046440
*CONN
*P *98 O
*CAP
3233 *98 *107 0.007350
3234 *98 *804 0.006390
3235 *98 *837 0.006660
3236 *98 *304 0.098740
3237 *98 *11 0.761960
3238 *98 *317 0.007220
3239 *98 *296 0.005630
3240 *98 *803 0.046630
3241 *98 *836 0.105860
*END

*D_NET *100 1.673590
*CONN
*P *100 O
*CAP
3242 *100 *290 0.052200
3243 *100 *289 0.096600
3244 *100 *350 0.006390
3245 *100 *383 0.006660
3246 *100 *101 0.504770
3247 *100 *108 0.007350
3248 *100 *102 0.001720
3249 *100 *13 0.669880
3250 *100 *447 0.003200
3251 *100 *349 0.046500
3252 *100 *382 0.108310
3253 *100 *318 0.012770
3254 *100 *317 0.003260
3255 *100 *298 0.001940
3256 *100 *297 0.152040
*END

*D_NET *101 2.351060
*CONN
*P *101 O
*CAP
3257 *101 *512 0.003310
3258 *101 *102 0.787330
3259 *101 *414 0.047030
3260 *101 *13 0.712490
3261 *101 *447 0.106210
3262 *101 *318 0.062190
3263 *101 *299 0.003720
3264 *101 *317 0.002740
3265 *101 *298 0.220920
3266 *101 *297 0.094290
3267 *101 *291 0.078030
3268 *101 *290 0.111170
3269 *101 *289 0.099530
3270 *101 *415 0.007060
3271 *101 *448 0.006860
3272 *101 *109 0.008180
*END

*D_NET *102 2.880610
*CONN
*P *102 O
*CAP
3273 *102 *292 0.103140
3274 *102 *291 0.117990
3275 *102 *290 0.085900
3276 *102 *480 0.006880
3277 *102 *289 0.093430
3278 *102 *513 0.008640
3279 *102 *448 0.001560
3280 *102 *109 0.001810
3281 *102 *383 0.001970
3282 *102 *103 1.073400
3283 *102 *108 0.001810
3284 *102 *111 0.010010
3285 *102 *577 0.003310
3286 *102 *479 0.046980
3287 *102 *512 0.105550
3288 *102 *319 0.001690
3289 *102 *13 0.673580
3290 *102 *318 0.082970
3291 *102 *300 0.005500
3292 *102 *299 0.279760
3293 *102 *317 0.001060
3294 *102 *298 0.087060
3295 *102 *297 0.086610
*END

*D_NET *103 3.130840
*CONN
*P *103 O
*CAP
3296 *103 *108 0.471130
3297 *103 *642 0.003310
3298 *103 *544 0.046990
3299 *103 *111 0.132840
3300 *103 *14 0.029380
3301 *103 *577 0.105500
3302 *103 *319 0.003320
3303 *103 *13 0.671400
3304 *103 *104 0.124070
3305 *103 *318 0.028370
3306 *103 *301 0.014030
3307 *103 *300 0.344360
3308 *103 *299 0.092520
3309 *103 *317 0.001060
3310 *103 *298 0.090850
3311 *103 *297 0.085670
3312 *103 *643 0.001130
3313 *103 *293 0.128210
3314 *103 *545 0.008160
3315 *103 *292 0.141530
3316 *103 *578 0.012270
3317 *103 *291 0.099250
3318 *103 *290 0.096280
3319 *103 *480 0.001560
3320 *103 *289 0.093350
3321 *103 *513 0.004070
3322 *103 *415 0.001550
3323 *103 *448 0.004010
3324 *103 *350 0.002470
3325 *103 *109 0.158530
3326 *103 *383 0.004190
3327 *103 *112 0.129480
*END

*D_NET *104 3.519970
*CONN
*P *104 O
*CAP
3328 *104 *773 0.004030
3329 *104 *317 0.001680
3330 *104 *675 0.002160
3331 *104 *708 0.004790
3332 *104 *296 0.094380
3333 *104 *610 0.006780
3334 *104 *295 0.096960
3335 *104 *294 0.305190
3336 *104 *643 0.008630
3337 *104 *293 0.017660
3338 *104 *114 0.134570
3339 *104 *116 0.253590
3340 *104 *105 0.856860
3341 *104 *707 0.003500
3342 *104 *609 0.046990
3343 *104 *642 0.105460
3344 *104 *14 0.025870
3345 *104 *113 0.128860
3346 *104 *319 0.002280
3347 *104 *13 0.679600
3348 *104 *115 0.160330
3349 *104 *304 0.104310
3350 *104 *318 0.032390
3351 *104 *805 0.002340
3352 *104 *303 0.100080
3353 *104 *302 0.138060
3354 *104 *838 0.005430
3355 *104 *301 0.195500
3356 *104 *740 0.001690
*END

*D_NET *105 2.210030
*CONN
*P *105 O
*CAP
3357 *105 *107 0.001720
3358 *105 *772 0.003560
3359 *105 *674 0.046990
3360 *105 *707 0.105460
3361 *105 *14 0.001070
3362 *105 *13 0.682900
3363 *105 *115 0.001810
3364 *105 *304 0.094760
3365 *105 *318 0.055030
3366 *105 *303 0.115720
3367 *105 *302 0.163170
3368 *105 *838 0.001560
3369 *105 *106 0.571330
3370 *105 *773 0.001530
3371 *105 *317 0.001680
3372 *105 *675 0.006440
3373 *105 *708 0.007160
3374 *105 *296 0.086070
3375 *105 *295 0.238060
3376 *105 *294 0.012160
3377 *105 *114 0.010040
3378 *105 *116 0.001810
*END

*D_NET *106 1.663840
*CONN
*P *106 O
*CAP
3379 *106 *303 0.130360
3380 *106 *740 0.006390
3381 *106 *773 0.006750
3382 *106 *317 0.001770
3383 *106 *296 0.182880
3384 *106 *295 0.008900
3385 *106 *107 0.289160
3386 *106 *804 0.001550
3387 *106 *837 0.003990
3388 *106 *739 0.046990
3389 *106 *772 0.105460
3390 *106 *14 0.001240
3391 *106 *13 0.726110
3392 *106 *115 0.008200
3393 *106 *304 0.123020
3394 *106 *318 0.021070
*END

*D_NET *107 1.046440
*CONN
*P *107 O
*CAP
3395 *107 *804 0.046630
3396 *107 *837 0.105860
3397 *107 *13 0.761960
3398 *107 *304 0.098740
3399 *107 *318 0.007220
3400 *107 *805 0.006390
3401 *107 *838 0.006660
3402 *107 *296 0.005630
3403 *107 *116 0.007350
*END

*D_NET *108 1.673590
*CONN
*P *108 O
*CAP
3404 *108 *448 0.003200
3405 *108 *350 0.046500
3406 *108 *109 0.504770
3407 *108 *383 0.108310
3408 *108 *351 0.006390
3409 *108 *384 0.006660
3410 *108 *117 0.007350
3411 *108 *111 0.001720
3412 *108 *14 0.669880
3413 *108 *319 0.012770
3414 *108 *318 0.003260
3415 *108 *298 0.001940
3416 *108 *297 0.152040
3417 *108 *290 0.052200
3418 *108 *289 0.096600
*END

*D_NET *109 2.351060
*CONN
*P *109 O
*CAP
3419 *109 *111 0.787330
3420 *109 *14 0.712490
3421 *109 *319 0.062190
3422 *109 *318 0.002740
3423 *109 *299 0.003720
3424 *109 *298 0.220920
3425 *109 *297 0.094290
3426 *109 *291 0.078030
3427 *109 *290 0.111170
3428 *109 *118 0.008180
3429 *109 *289 0.099530
3430 *109 *513 0.003310
3431 *109 *415 0.047030
3432 *109 *448 0.106210
3433 *109 *416 0.007060
3434 *109 *449 0.006860
*END

*D_NET *111 2.880610
*CONN
*P *111 O
*CAP
3435 *111 *291 0.117990
3436 *111 *290 0.085900
3437 *111 *480 0.046980
3438 *111 *118 0.001810
3439 *111 *289 0.093430
3440 *111 *513 0.105550
3441 *111 *112 1.073400
3442 *111 *481 0.006880
3443 *111 *514 0.008640
3444 *111 *449 0.001560
3445 *111 *384 0.001970
3446 *111 *117 0.001810
3447 *111 *119 0.010010
3448 *111 *320 0.001690
3449 *111 *14 0.673580
3450 *111 *319 0.082970
3451 *111 *318 0.001060
3452 *111 *300 0.005500
3453 *111 *299 0.279760
3454 *111 *298 0.087060
3455 *111 *297 0.086610
3456 *111 *292 0.103140
3457 *111 *578 0.003310
*END

*D_NET *112 3.130840
*CONN
*P *112 O
*CAP
3458 *112 *117 0.471130
3459 *112 *119 0.132840
3460 *112 *15 0.029380
3461 *112 *320 0.003320
3462 *112 *14 0.671400
3463 *112 *113 0.124070
3464 *112 *319 0.028370
3465 *112 *318 0.001060
3466 *112 *301 0.014030
3467 *112 *300 0.344360
3468 *112 *299 0.092520
3469 *112 *298 0.090850
3470 *112 *297 0.085670
3471 *112 *643 0.003310
3472 *112 *293 0.128210
3473 *112 *545 0.046990
3474 *112 *292 0.141530
3475 *112 *578 0.105500
3476 *112 *291 0.099250
3477 *112 *290 0.096280
3478 *112 *118 0.158530
3479 *112 *289 0.093350
3480 *112 *120 0.129480
3481 *112 *644 0.001130
3482 *112 *546 0.008160
3483 *112 *579 0.012270
3484 *112 *481 0.001560
3485 *112 *514 0.004070
3486 *112 *416 0.001550
3487 *112 *449 0.004010
3488 *112 *351 0.002470
3489 *112 *384 0.004190
*END

*D_NET *113 3.519970
*CONN
*P *113 O
*CAP
3490 *113 *294 0.305190
3491 *113 *643 0.105460
3492 *113 *293 0.017660
3493 *113 *123 0.134570
3494 *113 *806 0.002340
3495 *113 *839 0.005430
3496 *113 *741 0.001690
3497 *113 *125 0.253590
3498 *113 *774 0.004030
3499 *113 *114 0.856860
3500 *113 *676 0.002160
3501 *113 *709 0.004790
3502 *113 *611 0.006780
3503 *113 *644 0.008630
3504 *113 *15 0.025870
3505 *113 *122 0.128860
3506 *113 *320 0.002280
3507 *113 *14 0.679600
3508 *113 *124 0.160330
3509 *113 *319 0.032390
3510 *113 *304 0.104310
3511 *113 *318 0.001680
3512 *113 *303 0.100080
3513 *113 *302 0.138060
3514 *113 *301 0.195500
3515 *113 *708 0.003500
3516 *113 *296 0.094380
3517 *113 *610 0.046990
3518 *113 *295 0.096960
*END

*D_NET *114 2.210030
*CONN
*P *114 O
*CAP
3519 *114 *15 0.001070
3520 *114 *14 0.682900
3521 *114 *124 0.001810
3522 *114 *319 0.055030
3523 *114 *115 0.571330
3524 *114 *304 0.094760
3525 *114 *318 0.001680
3526 *114 *303 0.115720
3527 *114 *302 0.163170
3528 *114 *773 0.003560
3529 *114 *675 0.046990
3530 *114 *708 0.105460
3531 *114 *296 0.086070
3532 *114 *295 0.238060
3533 *114 *294 0.012160
3534 *114 *123 0.010040
3535 *114 *839 0.001560
3536 *114 *125 0.001810
3537 *114 *774 0.001530
3538 *114 *676 0.006440
3539 *114 *709 0.007160
3540 *114 *116 0.001720
*END

*D_NET *115 1.663840
*CONN
*P *115 O
*CAP
3541 *115 *296 0.182880
3542 *115 *295 0.008900
3543 *115 *741 0.006390
3544 *115 *774 0.006750
3545 *115 *116 0.289160
3546 *115 *15 0.001240
3547 *115 *14 0.726110
3548 *115 *124 0.008200
3549 *115 *319 0.021070
3550 *115 *304 0.123020
3551 *115 *318 0.001770
3552 *115 *805 0.001550
3553 *115 *303 0.130360
3554 *115 *838 0.003990
3555 *115 *740 0.046990
3556 *115 *773 0.105460
*END

*D_NET *116 1.046440
*CONN
*P *116 O
*CAP
3557 *116 *14 0.761960
3558 *116 *319 0.007220
3559 *116 *304 0.098740
3560 *116 *805 0.046630
3561 *116 *838 0.105860
3562 *116 *296 0.005630
3563 *116 *806 0.006390
3564 *116 *839 0.006660
3565 *116 *125 0.007350
*END

*D_NET *117 1.673590
*CONN
*P *117 O
*CAP
3566 *117 *126 0.007350
3567 *117 *449 0.003200
3568 *117 *351 0.046500
3569 *117 *384 0.108310
3570 *117 *119 0.001720
3571 *117 *15 0.669880
3572 *117 *320 0.012770
3573 *117 *319 0.003260
3574 *117 *352 0.006390
3575 *117 *385 0.006660
3576 *117 *298 0.001940
3577 *117 *297 0.152040
3578 *117 *290 0.052200
3579 *117 *118 0.504770
3580 *117 *289 0.096600
*END

*D_NET *118 2.351060
*CONN
*P *118 O
*CAP
3581 *118 *320 0.062190
3582 *118 *319 0.002740
3583 *118 *417 0.007060
3584 *118 *450 0.006860
3585 *118 *299 0.003720
3586 *118 *298 0.220920
3587 *118 *297 0.094290
3588 *118 *127 0.008180
3589 *118 *291 0.078030
3590 *118 *290 0.111170
3591 *118 *289 0.099530
3592 *118 *514 0.003310
3593 *118 *416 0.047030
3594 *118 *449 0.106210
3595 *118 *119 0.787330
3596 *118 *15 0.712490
*END

*D_NET *119 2.880610
*CONN
*P *119 O
*CAP
3597 *119 *579 0.003310
3598 *119 *481 0.046980
3599 *119 *514 0.105550
3600 *119 *126 0.001810
3601 *119 *128 0.010010
3602 *119 *321 0.001690
3603 *119 *15 0.673580
3604 *119 *320 0.082970
3605 *119 *482 0.006880
3606 *119 *515 0.008640
3607 *119 *319 0.001060
3608 *119 *450 0.001560
3609 *119 *385 0.001970
3610 *119 *300 0.005500
3611 *119 *299 0.279760
3612 *119 *298 0.087060
3613 *119 *297 0.086610
3614 *119 *127 0.001810
3615 *119 *292 0.103140
3616 *119 *291 0.117990
3617 *119 *290 0.085900
3618 *119 *289 0.093430
3619 *119 *120 1.073400
*END

*D_NET *120 3.130840
*CONN
*P *120 O
*CAP
3620 *120 *321 0.003320
3621 *120 *15 0.671400
3622 *120 *122 0.124070
3623 *120 *645 0.001130
3624 *120 *320 0.028370
3625 *120 *547 0.008160
3626 *120 *580 0.012270
3627 *120 *482 0.001560
3628 *120 *515 0.004070
3629 *120 *319 0.001060
3630 *120 *417 0.001550
3631 *120 *450 0.004010
3632 *120 *352 0.002470
3633 *120 *385 0.004190
3634 *120 *301 0.014030
3635 *120 *300 0.344360
3636 *120 *299 0.092520
3637 *120 *298 0.090850
3638 *120 *297 0.085670
3639 *120 *127 0.158530
3640 *120 *293 0.128210
3641 *120 *292 0.141530
3642 *120 *129 0.129480
3643 *120 *291 0.099250
3644 *120 *290 0.096280
3645 *120 *289 0.093350
3646 *120 *644 0.003310
3647 *120 *546 0.046990
3648 *120 *579 0.105500
3649 *120 *126 0.471130
3650 *120 *128 0.132840
3651 *120 *16 0.029380
*END

*D_NET *122 3.519970
*CONN
*P *122 O
*CAP
3652 *122 *131 0.134570
3653 *122 *134 0.253590
3654 *122 *123 0.856860
3655 *122 *709 0.003500
3656 *122 *611 0.046990
3657 *122 *644 0.105460
3658 *122 *807 0.002340
3659 *122 *16 0.025870
3660 *122 *840 0.005430
3661 *122 *130 0.128860
3662 *122 *742 0.001690
3663 *122 *775 0.004030
3664 *122 *321 0.002280
3665 *122 *15 0.679600
3666 *122 *677 0.002160
3667 *122 *133 0.160330
3668 *122 *710 0.004790
3669 *122 *612 0.006780
3670 *122 *645 0.008630
3671 *122 *320 0.032390
3672 *122 *319 0.001680
3673 *122 *304 0.104310
3674 *122 *303 0.100080
3675 *122 *302 0.138060
3676 *122 *301 0.195500
3677 *122 *296 0.094380
3678 *122 *295 0.096960
3679 *122 *294 0.305190
3680 *122 *293 0.017660
*END

*D_NET *123 2.210030
*CONN
*P *123 O
*CAP
3681 *123 *840 0.001560
3682 *123 *775 0.001530
3683 *123 *15 0.682900
3684 *123 *677 0.006440
3685 *123 *133 0.001810
3686 *123 *710 0.007160
3687 *123 *320 0.055030
3688 *123 *124 0.571330
3689 *123 *319 0.001680
3690 *123 *304 0.094760
3691 *123 *303 0.115720
3692 *123 *302 0.163170
3693 *123 *296 0.086070
3694 *123 *295 0.238060
3695 *123 *294 0.012160
3696 *123 *131 0.010040
3697 *123 *134 0.001810
3698 *123 *125 0.001720
3699 *123 *774 0.003560
3700 *123 *676 0.046990
3701 *123 *709 0.105460
3702 *123 *16 0.001070
*END

*D_NET *124 1.663840
*CONN
*P *124 O
*CAP
3703 *124 *806 0.001550
3704 *124 *839 0.003990
3705 *124 *741 0.046990
3706 *124 *125 0.289160
3707 *124 *774 0.105460
3708 *124 *16 0.001240
3709 *124 *742 0.006390
3710 *124 *775 0.006750
3711 *124 *15 0.726110
3712 *124 *133 0.008200
3713 *124 *320 0.021070
3714 *124 *319 0.001770
3715 *124 *304 0.123020
3716 *124 *303 0.130360
3717 *124 *296 0.182880
3718 *124 *295 0.008900
*END

*D_NET *125 1.046440
*CONN
*P *125 O
*CAP
3719 *125 *807 0.006390
3720 *125 *840 0.006660
3721 *125 *15 0.761960
3722 *125 *320 0.007220
3723 *125 *304 0.098740
3724 *125 *296 0.005630
3725 *125 *134 0.007350
3726 *125 *806 0.046630
3727 *125 *839 0.105860
*END

*D_NET *126 1.673590
*CONN
*P *126 O
*CAP
3728 *126 *135 0.007350
3729 *126 *128 0.001720
3730 *126 *16 0.669880
3731 *126 *321 0.012770
3732 *126 *320 0.003260
3733 *126 *450 0.003200
3734 *126 *352 0.046500
3735 *126 *385 0.108310
3736 *126 *298 0.001940
3737 *126 *297 0.152040
3738 *126 *127 0.504770
3739 *126 *290 0.052200
3740 *126 *289 0.096600
3741 *126 *353 0.006390
3742 *126 *386 0.006660
*END

*D_NET *127 2.351060
*CONN
*P *127 O
*CAP
3743 *127 *515 0.003310
3744 *127 *417 0.047030
3745 *127 *450 0.106210
3746 *127 *136 0.008180
3747 *127 *299 0.003720
3748 *127 *298 0.220920
3749 *127 *297 0.094290
3750 *127 *291 0.078030
3751 *127 *290 0.111170
3752 *127 *289 0.099530
3753 *127 *418 0.007060
3754 *127 *451 0.006860
3755 *127 *128 0.787330
3756 *127 *16 0.712490
3757 *127 *321 0.062190
3758 *127 *320 0.002740
*END

*D_NET *128 2.880610
*CONN
*P *128 O
*CAP
3759 *128 *135 0.001810
3760 *128 *137 0.010010
3761 *128 *322 0.001690
3762 *128 *16 0.673580
3763 *128 *321 0.082970
3764 *128 *320 0.001060
3765 *128 *580 0.003310
3766 *128 *482 0.046980
3767 *128 *515 0.105550
3768 *128 *300 0.005500
3769 *128 *136 0.001810
3770 *128 *299 0.279760
3771 *128 *298 0.087060
3772 *128 *297 0.086610
3773 *128 *292 0.103140
3774 *128 *129 1.073400
3775 *128 *291 0.117990
3776 *128 *290 0.085900
3777 *128 *289 0.093430
3778 *128 *483 0.006880
3779 *128 *516 0.008640
3780 *128 *451 0.001560
3781 *128 *386 0.001970
*END

*D_NET *129 3.130840
*CONN
*P *129 O
*CAP
3782 *129 *320 0.001060
3783 *129 *547 0.046990
3784 *129 *580 0.105500
3785 *129 *301 0.014030
3786 *129 *300 0.344360
3787 *129 *136 0.158530
3788 *129 *299 0.092520
3789 *129 *298 0.090850
3790 *129 *297 0.085670
3791 *129 *138 0.129480
3792 *129 *293 0.128210
3793 *129 *646 0.001130
3794 *129 *292 0.141530
3795 *129 *548 0.008160
3796 *129 *291 0.099250
3797 *129 *581 0.012270
3798 *129 *290 0.096280
3799 *129 *289 0.093350
3800 *129 *483 0.001560
3801 *129 *516 0.004070
3802 *129 *418 0.001550
3803 *129 *451 0.004010
3804 *129 *353 0.002470
3805 *129 *386 0.004190
3806 *129 *135 0.471130
3807 *129 *137 0.132840
3808 *129 *17 0.029380
3809 *129 *322 0.003320
3810 *129 *16 0.671400
3811 *129 *130 0.124070
3812 *129 *321 0.028370
3813 *129 *645 0.003310
*END

*D_NET *130 3.519970
*CONN
*P *130 O
*CAP
3814 *130 *17 0.025870
3815 *130 *139 0.128860
3816 *130 *322 0.002280
3817 *130 *16 0.679600
3818 *130 *141 0.160330
3819 *130 *321 0.032390
3820 *130 *710 0.003500
3821 *130 *612 0.046990
3822 *130 *645 0.105460
3823 *130 *320 0.001680
3824 *130 *304 0.104310
3825 *130 *303 0.100080
3826 *130 *808 0.002340
3827 *130 *302 0.138060
3828 *130 *301 0.195500
3829 *130 *841 0.005430
3830 *130 *743 0.001690
3831 *130 *776 0.004030
3832 *130 *678 0.002160
3833 *130 *296 0.094380
3834 *130 *711 0.004790
3835 *130 *295 0.096960
3836 *130 *613 0.006780
3837 *130 *294 0.305190
3838 *130 *293 0.017660
3839 *130 *140 0.134570
3840 *130 *646 0.008630
3841 *130 *142 0.253590
3842 *130 *131 0.856860
*END

*D_NET *131 2.210030
*CONN
*P *131 O
*CAP
3843 *131 *133 0.571330
3844 *131 *710 0.105460
3845 *131 *320 0.001680
3846 *131 *304 0.094760
3847 *131 *303 0.115720
3848 *131 *302 0.163170
3849 *131 *841 0.001560
3850 *131 *776 0.001530
3851 *131 *678 0.006440
3852 *131 *296 0.086070
3853 *131 *711 0.007160
3854 *131 *295 0.238060
3855 *131 *294 0.012160
3856 *131 *140 0.010040
3857 *131 *142 0.001810
3858 *131 *134 0.001720
3859 *131 *17 0.001070
3860 *131 *16 0.682900
3861 *131 *141 0.001810
3862 *131 *775 0.003560
3863 *131 *321 0.055030
3864 *131 *677 0.046990
*END

*D_NET *133 1.663840
*CONN
*P *133 O
*CAP
3865 *133 *134 0.289160
3866 *133 *17 0.001240
3867 *133 *807 0.001550
3868 *133 *16 0.726110
3869 *133 *141 0.008200
3870 *133 *840 0.003990
3871 *133 *742 0.046990
3872 *133 *775 0.105460
3873 *133 *321 0.021070
3874 *133 *320 0.001770
3875 *133 *304 0.123020
3876 *133 *303 0.130360
3877 *133 *743 0.006390
3878 *133 *776 0.006750
3879 *133 *296 0.182880
3880 *133 *295 0.008900
*END

*D_NET *134 1.046440
*CONN
*P *134 O
*CAP
3881 *134 *321 0.007220
3882 *134 *304 0.098740
3883 *134 *808 0.006390
3884 *134 *841 0.006660
3885 *134 *296 0.005630
3886 *134 *142 0.007350
3887 *134 *807 0.046630
3888 *134 *16 0.761960
3889 *134 *840 0.105860
*END

*D_NET *135 1.673590
*CONN
*P *135 O
*CAP
3890 *135 *137 0.001720
3891 *135 *17 0.669880
3892 *135 *355 0.006390
3893 *135 *322 0.012770
3894 *135 *387 0.006660
3895 *135 *321 0.003260
3896 *135 *136 0.504770
3897 *135 *298 0.001940
3898 *135 *297 0.152040
3899 *135 *290 0.052200
3900 *135 *289 0.096600
3901 *135 *451 0.003200
3902 *135 *353 0.046500
3903 *135 *386 0.108310
3904 *135 *145 0.007350
*END

*D_NET *136 2.351060
*CONN
*P *136 O
*CAP
3905 *136 *299 0.003720
3906 *136 *298 0.220920
3907 *136 *297 0.094290
3908 *136 *291 0.078030
3909 *136 *290 0.111170
3910 *136 *289 0.099530
3911 *136 *516 0.003310
3912 *136 *418 0.047030
3913 *136 *451 0.106210
3914 *136 *137 0.787330
3915 *136 *17 0.712490
3916 *136 *420 0.007060
3917 *136 *452 0.006860
3918 *136 *322 0.062190
3919 *136 *321 0.002740
3920 *136 *146 0.008180
*END

*D_NET *137 2.880610
*CONN
*P *137 O
*CAP
3921 *137 *147 0.010010
3922 *137 *485 0.006880
3923 *137 *323 0.001690
3924 *137 *517 0.008640
3925 *137 *17 0.673580
3926 *137 *452 0.001560
3927 *137 *322 0.082970
3928 *137 *387 0.001970
3929 *137 *321 0.001060
3930 *137 *146 0.001810
3931 *137 *300 0.005500
3932 *137 *299 0.279760
3933 *137 *298 0.087060
3934 *137 *297 0.086610
3935 *137 *138 1.073400
3936 *137 *292 0.103140
3937 *137 *291 0.117990
3938 *137 *581 0.003310
3939 *137 *290 0.085900
3940 *137 *289 0.093430
3941 *137 *483 0.046980
3942 *137 *516 0.105550
3943 *137 *145 0.001810
*END

*D_NET *138 3.130840
*CONN
*P *138 O
*CAP
3944 *138 *146 0.158530
3945 *138 *148 0.129480
3946 *138 *301 0.014030
3947 *138 *300 0.344360
3948 *138 *299 0.092520
3949 *138 *298 0.090850
3950 *138 *297 0.085670
3951 *138 *293 0.128210
3952 *138 *646 0.003310
3953 *138 *292 0.141530
3954 *138 *548 0.046990
3955 *138 *291 0.099250
3956 *138 *581 0.105500
3957 *138 *290 0.096280
3958 *138 *289 0.093350
3959 *138 *145 0.471130
3960 *138 *147 0.132840
3961 *138 *647 0.001130
3962 *138 *18 0.029380
3963 *138 *550 0.008160
3964 *138 *582 0.012270
3965 *138 *485 0.001560
3966 *138 *323 0.003320
3967 *138 *517 0.004070
3968 *138 *17 0.671400
3969 *138 *420 0.001550
3970 *138 *452 0.004010
3971 *138 *139 0.124070
3972 *138 *355 0.002470
3973 *138 *322 0.028370
3974 *138 *387 0.004190
3975 *138 *321 0.001060
*END

*D_NET *139 3.519970
*CONN
*P *139 O
*CAP
3976 *139 *745 0.001690
3977 *139 *777 0.004030
3978 *139 *680 0.002160
3979 *139 *712 0.004790
3980 *139 *615 0.006780
3981 *139 *647 0.008630
3982 *139 *18 0.025870
3983 *139 *149 0.128860
3984 *139 *323 0.002280
3985 *139 *17 0.679600
3986 *139 *151 0.160330
3987 *139 *322 0.032390
3988 *139 *321 0.001680
3989 *139 *304 0.104310
3990 *139 *303 0.100080
3991 *139 *302 0.138060
3992 *139 *301 0.195500
3993 *139 *150 0.134570
3994 *139 *296 0.094380
3995 *139 *711 0.003500
3996 *139 *295 0.096960
3997 *139 *152 0.253590
3998 *139 *613 0.046990
3999 *139 *294 0.305190
4000 *139 *293 0.017660
4001 *139 *140 0.856860
4002 *139 *646 0.105460
4003 *139 *810 0.002340
4004 *139 *842 0.005430
*END

*D_NET *140 2.210030
*CONN
*P *140 O
*CAP
4005 *140 *304 0.094760
4006 *140 *303 0.115720
4007 *140 *302 0.163170
4008 *140 *776 0.003560
4009 *140 *150 0.010040
4010 *140 *678 0.046990
4011 *140 *296 0.086070
4012 *140 *711 0.105460
4013 *140 *295 0.238060
4014 *140 *152 0.001810
4015 *140 *294 0.012160
4016 *140 *142 0.001720
4017 *140 *842 0.001560
4018 *140 *777 0.001530
4019 *140 *680 0.006440
4020 *140 *712 0.007160
4021 *140 *18 0.001070
4022 *140 *17 0.682900
4023 *140 *151 0.001810
4024 *140 *322 0.055030
4025 *140 *141 0.571330
4026 *140 *321 0.001680
*END

*D_NET *141 1.663840
*CONN
*P *141 O
*CAP
4027 *141 *745 0.006390
4028 *141 *777 0.006750
4029 *141 *18 0.001240
4030 *141 *17 0.726110
4031 *141 *151 0.008200
4032 *141 *322 0.021070
4033 *141 *321 0.001770
4034 *141 *304 0.123020
4035 *141 *303 0.130360
4036 *141 *808 0.001550
4037 *141 *841 0.003990
4038 *141 *743 0.046990
4039 *141 *776 0.105460
4040 *141 *296 0.182880
4041 *141 *295 0.008900
4042 *141 *142 0.289160
*END

*D_NET *142 1.046440
*CONN
*P *142 O
*CAP
4043 *142 *304 0.098740
4044 *142 *808 0.046630
4045 *142 *841 0.105860
4046 *142 *296 0.005630
4047 *142 *152 0.007350
4048 *142 *810 0.006390
4049 *142 *842 0.006660
4050 *142 *17 0.761960
4051 *142 *322 0.007220
*END

*D_NET *145 1.673590
*CONN
*P *145 O
*CAP
4052 *145 *323 0.012770
4053 *145 *452 0.003200
4054 *145 *355 0.046500
4055 *145 *322 0.003260
4056 *145 *387 0.108310
4057 *145 *146 0.504770
4058 *145 *356 0.006390
4059 *145 *388 0.006660
4060 *145 *298 0.001940
4061 *145 *297 0.152040
4062 *145 *290 0.052200
4063 *145 *289 0.096600
4064 *145 *153 0.007350
4065 *145 *147 0.001720
4066 *145 *18 0.669880
*END

*D_NET *146 2.351060
*CONN
*P *146 O
*CAP
4067 *146 *299 0.003720
4068 *146 *298 0.220920
4069 *146 *297 0.094290
4070 *146 *291 0.078030
4071 *146 *290 0.111170
4072 *146 *289 0.099530
4073 *146 *147 0.787330
4074 *146 *18 0.712490
4075 *146 *323 0.062190
4076 *146 *517 0.003310
4077 *146 *420 0.047030
4078 *146 *452 0.106210
4079 *146 *322 0.002740
4080 *146 *154 0.008180
4081 *146 *421 0.007060
4082 *146 *453 0.006860
*END

*D_NET *147 2.880610
*CONN
*P *147 O
*CAP
4083 *147 *582 0.003310
4084 *147 *485 0.046980
4085 *147 *323 0.082970
4086 *147 *517 0.105550
4087 *147 *322 0.001060
4088 *147 *154 0.001810
4089 *147 *486 0.006880
4090 *147 *518 0.008640
4091 *147 *453 0.001560
4092 *147 *388 0.001970
4093 *147 *148 1.073400
4094 *147 *300 0.005500
4095 *147 *299 0.279760
4096 *147 *298 0.087060
4097 *147 *297 0.086610
4098 *147 *292 0.103140
4099 *147 *291 0.117990
4100 *147 *290 0.085900
4101 *147 *289 0.093430
4102 *147 *153 0.001810
4103 *147 *156 0.010010
4104 *147 *324 0.001690
4105 *147 *18 0.673580
*END

*D_NET *148 3.130840
*CONN
*P *148 O
*CAP
4106 *148 *388 0.004190
4107 *148 *301 0.014030
4108 *148 *300 0.344360
4109 *148 *299 0.092520
4110 *148 *298 0.090850
4111 *148 *297 0.085670
4112 *148 *293 0.128210
4113 *148 *292 0.141530
4114 *148 *291 0.099250
4115 *148 *290 0.096280
4116 *148 *289 0.093350
4117 *148 *153 0.471130
4118 *148 *156 0.132840
4119 *148 *19 0.029380
4120 *148 *324 0.003320
4121 *148 *647 0.003310
4122 *148 *18 0.671400
4123 *148 *550 0.046990
4124 *148 *582 0.105500
4125 *148 *149 0.124070
4126 *148 *323 0.028370
4127 *148 *322 0.001060
4128 *148 *648 0.001130
4129 *148 *551 0.008160
4130 *148 *154 0.158530
4131 *148 *583 0.012270
4132 *148 *486 0.001560
4133 *148 *518 0.004070
4134 *148 *157 0.129480
4135 *148 *421 0.001550
4136 *148 *453 0.004010
4137 *148 *356 0.002470
*END

*D_NET *149 3.519970
*CONN
*P *149 O
*CAP
4138 *149 *158 0.128860
4139 *149 *615 0.046990
4140 *149 *324 0.002280
4141 *149 *647 0.105460
4142 *149 *18 0.679600
4143 *149 *160 0.160330
4144 *149 *323 0.032390
4145 *149 *322 0.001680
4146 *149 *811 0.002340
4147 *149 *843 0.005430
4148 *149 *746 0.001690
4149 *149 *778 0.004030
4150 *149 *681 0.002160
4151 *149 *713 0.004790
4152 *149 *616 0.006780
4153 *149 *648 0.008630
4154 *149 *304 0.104310
4155 *149 *159 0.134570
4156 *149 *303 0.100080
4157 *149 *302 0.138060
4158 *149 *301 0.195500
4159 *149 *161 0.253590
4160 *149 *150 0.856860
4161 *149 *296 0.094380
4162 *149 *295 0.096960
4163 *149 *294 0.305190
4164 *149 *293 0.017660
4165 *149 *19 0.025870
4166 *149 *712 0.003500
*END

*D_NET *150 2.210030
*CONN
*P *150 O
*CAP
4167 *150 *304 0.094760
4168 *150 *159 0.010040
4169 *150 *303 0.115720
4170 *150 *302 0.163170
4171 *150 *161 0.001810
4172 *150 *296 0.086070
4173 *150 *295 0.238060
4174 *150 *152 0.001720
4175 *150 *294 0.012160
4176 *150 *777 0.003560
4177 *150 *19 0.001070
4178 *150 *680 0.046990
4179 *150 *712 0.105460
4180 *150 *18 0.682900
4181 *150 *160 0.001810
4182 *150 *323 0.055030
4183 *150 *151 0.571330
4184 *150 *322 0.001680
4185 *150 *843 0.001560
4186 *150 *778 0.001530
4187 *150 *681 0.006440
4188 *150 *713 0.007160
*END

*D_NET *151 1.663840
*CONN
*P *151 O
*CAP
4189 *151 *777 0.105460
4190 *151 *19 0.001240
4191 *151 *18 0.726110
4192 *151 *160 0.008200
4193 *151 *323 0.021070
4194 *151 *322 0.001770
4195 *151 *746 0.006390
4196 *151 *778 0.006750
4197 *151 *304 0.123020
4198 *151 *303 0.130360
4199 *151 *296 0.182880
4200 *151 *295 0.008900
4201 *151 *152 0.289160
4202 *151 *810 0.001550
4203 *151 *842 0.003990
4204 *151 *745 0.046990
*END

*D_NET *152 1.046440
*CONN
*P *152 O
*CAP
4205 *152 *304 0.098740
4206 *152 *161 0.007350
4207 *152 *296 0.005630
4208 *152 *810 0.046630
4209 *152 *842 0.105860
4210 *152 *18 0.761960
4211 *152 *323 0.007220
4212 *152 *811 0.006390
4213 *152 *843 0.006660
*END

*D_NET *153 1.673590
*CONN
*P *153 O
*CAP
4214 *153 *154 0.504770
4215 *153 *453 0.003200
4216 *153 *356 0.046500
4217 *153 *388 0.108310
4218 *153 *298 0.001940
4219 *153 *297 0.152040
4220 *153 *290 0.052200
4221 *153 *289 0.096600
4222 *153 *162 0.007350
4223 *153 *357 0.006390
4224 *153 *389 0.006660
4225 *153 *156 0.001720
4226 *153 *19 0.669880
4227 *153 *324 0.012770
4228 *153 *323 0.003260
*END

*D_NET *154 2.351060
*CONN
*P *154 O
*CAP
4229 *154 *291 0.078030
4230 *154 *290 0.111170
4231 *154 *289 0.099530
4232 *154 *422 0.007060
4233 *154 *454 0.006860
4234 *154 *156 0.787330
4235 *154 *19 0.712490
4236 *154 *324 0.062190
4237 *154 *323 0.002740
4238 *154 *163 0.008180
4239 *154 *518 0.003310
4240 *154 *421 0.047030
4241 *154 *453 0.106210
4242 *154 *299 0.003720
4243 *154 *298 0.220920
4244 *154 *297 0.094290
*END

*D_NET *156 2.880610
*CONN
*P *156 O
*CAP
4245 *156 *163 0.001810
4246 *156 *583 0.003310
4247 *156 *486 0.046980
4248 *156 *518 0.105550
4249 *156 *157 1.073400
4250 *156 *300 0.005500
4251 *156 *299 0.279760
4252 *156 *298 0.087060
4253 *156 *297 0.086610
4254 *156 *292 0.103140
4255 *156 *291 0.117990
4256 *156 *290 0.085900
4257 *156 *289 0.093430
4258 *156 *487 0.006880
4259 *156 *519 0.008640
4260 *156 *162 0.001810
4261 *156 *454 0.001560
4262 *156 *164 0.010010
4263 *156 *389 0.001970
4264 *156 *325 0.001690
4265 *156 *19 0.673580
4266 *156 *324 0.082970
4267 *156 *323 0.001060
*END

*D_NET *157 3.130840
*CONN
*P *157 O
*CAP
4268 *157 *298 0.090850
4269 *157 *297 0.085670
4270 *157 *293 0.128210
4271 *157 *292 0.141530
4272 *157 *649 0.001130
4273 *157 *291 0.099250
4274 *157 *552 0.008160
4275 *157 *290 0.096280
4276 *157 *289 0.093350
4277 *157 *584 0.012270
4278 *157 *487 0.001560
4279 *157 *519 0.004070
4280 *157 *162 0.471130
4281 *157 *422 0.001550
4282 *157 *454 0.004010
4283 *157 *164 0.132840
4284 *157 *357 0.002470
4285 *157 *20 0.029380
4286 *157 *389 0.004190
4287 *157 *325 0.003320
4288 *157 *19 0.671400
4289 *157 *158 0.124070
4290 *157 *324 0.028370
4291 *157 *323 0.001060
4292 *157 *163 0.158530
4293 *157 *648 0.003310
4294 *157 *165 0.129480
4295 *157 *551 0.046990
4296 *157 *583 0.105500
4297 *157 *301 0.014030
4298 *157 *300 0.344360
4299 *157 *299 0.092520
*END

*D_NET *158 3.519970
*CONN
*P *158 O
*CAP
4300 *158 *323 0.001680
4301 *158 *713 0.003500
4302 *158 *616 0.046990
4303 *158 *648 0.105460
4304 *158 *168 0.134570
4305 *158 *170 0.253590
4306 *158 *304 0.104310
4307 *158 *159 0.856860
4308 *158 *303 0.100080
4309 *158 *302 0.138060
4310 *158 *301 0.195500
4311 *158 *812 0.002340
4312 *158 *844 0.005430
4313 *158 *747 0.001690
4314 *158 *779 0.004030
4315 *158 *296 0.094380
4316 *158 *682 0.002160
4317 *158 *295 0.096960
4318 *158 *714 0.004790
4319 *158 *294 0.305190
4320 *158 *293 0.017660
4321 *158 *617 0.006780
4322 *158 *649 0.008630
4323 *158 *20 0.025870
4324 *158 *167 0.128860
4325 *158 *325 0.002280
4326 *158 *19 0.679600
4327 *158 *169 0.160330
4328 *158 *324 0.032390
*END

*D_NET *159 2.210030
*CONN
*P *159 O
*CAP
4329 *159 *161 0.001720
4330 *159 *844 0.001560
4331 *159 *779 0.001530
4332 *159 *296 0.086070
4333 *159 *682 0.006440
4334 *159 *295 0.238060
4335 *159 *714 0.007160
4336 *159 *294 0.012160
4337 *159 *20 0.001070
4338 *159 *19 0.682900
4339 *159 *169 0.001810
4340 *159 *324 0.055030
4341 *159 *160 0.571330
4342 *159 *323 0.001680
4343 *159 *778 0.003560
4344 *159 *681 0.046990
4345 *159 *713 0.105460
4346 *159 *168 0.010040
4347 *159 *170 0.001810
4348 *159 *304 0.094760
4349 *159 *303 0.115720
4350 *159 *302 0.163170
*END

*D_NET *160 1.663840
*CONN
*P *160 O
*CAP
4351 *160 *324 0.021070
4352 *160 *323 0.001770
4353 *160 *811 0.001550
4354 *160 *843 0.003990
4355 *160 *746 0.046990
4356 *160 *778 0.105460
4357 *160 *304 0.123020
4358 *160 *303 0.130360
4359 *160 *161 0.289160
4360 *160 *747 0.006390
4361 *160 *779 0.006750
4362 *160 *296 0.182880
4363 *160 *295 0.008900
4364 *160 *20 0.001240
4365 *160 *19 0.726110
4366 *160 *169 0.008200
*END

*D_NET *161 1.046440
*CONN
*P *161 O
*CAP
4367 *161 *170 0.007350
4368 *161 *304 0.098740
4369 *161 *812 0.006390
4370 *161 *844 0.006660
4371 *161 *296 0.005630
4372 *161 *19 0.761960
4373 *161 *324 0.007220
4374 *161 *811 0.046630
4375 *161 *843 0.105860
*END

*D_NET *162 1.673590
*CONN
*P *162 O
*CAP
4376 *162 *163 0.504770
4377 *162 *298 0.001940
4378 *162 *297 0.152040
4379 *162 *171 0.007350
4380 *162 *290 0.052200
4381 *162 *289 0.096600
4382 *162 *454 0.003200
4383 *162 *164 0.001720
4384 *162 *357 0.046500
4385 *162 *20 0.669880
4386 *162 *389 0.108310
4387 *162 *325 0.012770
4388 *162 *324 0.003260
4389 *162 *358 0.006390
4390 *162 *390 0.006660
*END

*D_NET *163 2.351060
*CONN
*P *163 O
*CAP
4391 *163 *289 0.099530
4392 *163 *519 0.003310
4393 *163 *422 0.047030
4394 *163 *454 0.106210
4395 *163 *164 0.787330
4396 *163 *20 0.712490
4397 *163 *325 0.062190
4398 *163 *324 0.002740
4399 *163 *423 0.007060
4400 *163 *455 0.006860
4401 *163 *172 0.008180
4402 *163 *299 0.003720
4403 *163 *298 0.220920
4404 *163 *297 0.094290
4405 *163 *291 0.078030
4406 *163 *290 0.111170
*END

*D_NET *164 2.880610
*CONN
*P *164 O
*CAP
4407 *164 *390 0.001970
4408 *164 *172 0.001810
4409 *164 *165 1.073400
4410 *164 *300 0.005500
4411 *164 *299 0.279760
4412 *164 *298 0.087060
4413 *164 *297 0.086610
4414 *164 *292 0.103140
4415 *164 *171 0.001810
4416 *164 *291 0.117990
4417 *164 *290 0.085900
4418 *164 *289 0.093430
4419 *164 *584 0.003310
4420 *164 *487 0.046980
4421 *164 *173 0.010010
4422 *164 *519 0.105550
4423 *164 *326 0.001690
4424 *164 *20 0.673580
4425 *164 *325 0.082970
4426 *164 *324 0.001060
4427 *164 *488 0.006880
4428 *164 *520 0.008640
4429 *164 *455 0.001560
*END

*D_NET *165 3.130840
*CONN
*P *165 O
*CAP
4430 *165 *292 0.141530
4431 *165 *649 0.003310
4432 *165 *171 0.471130
4433 *165 *291 0.099250
4434 *165 *552 0.046990
4435 *165 *290 0.096280
4436 *165 *289 0.093350
4437 *165 *584 0.105500
4438 *165 *173 0.132840
4439 *165 *21 0.029380
4440 *165 *326 0.003320
4441 *165 *20 0.671400
4442 *165 *167 0.124070
4443 *165 *325 0.028370
4444 *165 *324 0.001060
4445 *165 *650 0.001130
4446 *165 *553 0.008160
4447 *165 *585 0.012270
4448 *165 *488 0.001560
4449 *165 *520 0.004070
4450 *165 *423 0.001550
4451 *165 *455 0.004010
4452 *165 *358 0.002470
4453 *165 *390 0.004190
4454 *165 *172 0.158530
4455 *165 *174 0.129480
4456 *165 *301 0.014030
4457 *165 *300 0.344360
4458 *165 *299 0.092520
4459 *165 *298 0.090850
4460 *165 *297 0.085670
4461 *165 *293 0.128210
*END

*D_NET *167 3.519970
*CONN
*P *167 O
*CAP
4462 *167 *176 0.134570
4463 *167 *179 0.253590
4464 *167 *168 0.856860
4465 *167 *304 0.104310
4466 *167 *303 0.100080
4467 *167 *302 0.138060
4468 *167 *301 0.195500
4469 *167 *296 0.094380
4470 *167 *295 0.096960
4471 *167 *714 0.003500
4472 *167 *294 0.305190
4473 *167 *293 0.017660
4474 *167 *617 0.046990
4475 *167 *649 0.105460
4476 *167 *21 0.025870
4477 *167 *175 0.128860
4478 *167 *326 0.002280
4479 *167 *20 0.679600
4480 *167 *178 0.160330
4481 *167 *813 0.002340
4482 *167 *845 0.005430
4483 *167 *325 0.032390
4484 *167 *748 0.001690
4485 *167 *780 0.004030
4486 *167 *683 0.002160
4487 *167 *715 0.004790
4488 *167 *324 0.001680
4489 *167 *618 0.006780
4490 *167 *650 0.008630
*END

*D_NET *168 2.210030
*CONN
*P *168 O
*CAP
4491 *168 *296 0.086070
4492 *168 *682 0.046990
4493 *168 *295 0.238060
4494 *168 *714 0.105460
4495 *168 *294 0.012160
4496 *168 *21 0.001070
4497 *168 *20 0.682900
4498 *168 *178 0.001810
4499 *168 *845 0.001560
4500 *168 *325 0.055030
4501 *168 *780 0.001530
4502 *168 *169 0.571330
4503 *168 *683 0.006440
4504 *168 *715 0.007160
4505 *168 *324 0.001680
4506 *168 *176 0.010040
4507 *168 *179 0.001810
4508 *168 *170 0.001720
4509 *168 *304 0.094760
4510 *168 *303 0.115720
4511 *168 *302 0.163170
4512 *168 *779 0.003560
*END

*D_NET *169 1.663840
*CONN
*P *169 O
*CAP
4513 *169 *170 0.289160
4514 *169 *304 0.123020
4515 *169 *303 0.130360
4516 *169 *812 0.001550
4517 *169 *844 0.003990
4518 *169 *747 0.046990
4519 *169 *779 0.105460
4520 *169 *296 0.182880
4521 *169 *295 0.008900
4522 *169 *21 0.001240
4523 *169 *20 0.726110
4524 *169 *178 0.008200
4525 *169 *325 0.021070
4526 *169 *748 0.006390
4527 *169 *780 0.006750
4528 *169 *324 0.001770
*END

*D_NET *170 1.046440
*CONN
*P *170 O
*CAP
4529 *170 *844 0.105860
4530 *170 *296 0.005630
4531 *170 *20 0.761960
4532 *170 *813 0.006390
4533 *170 *845 0.006660
4534 *170 *325 0.007220
4535 *170 *179 0.007350
4536 *170 *304 0.098740
4537 *170 *812 0.046630
*END

*D_NET *171 1.673590
*CONN
*P *171 O
*CAP
4538 *171 *359 0.006390
4539 *171 *392 0.006660
4540 *171 *298 0.001940
4541 *171 *297 0.152040
4542 *171 *180 0.007350
4543 *171 *290 0.052200
4544 *171 *289 0.096600
4545 *171 *173 0.001720
4546 *171 *21 0.669880
4547 *171 *326 0.012770
4548 *171 *325 0.003260
4549 *171 *455 0.003200
4550 *171 *358 0.046500
4551 *171 *390 0.108310
4552 *171 *172 0.504770
*END

*D_NET *172 2.351060
*CONN
*P *172 O
*CAP
4553 *172 *326 0.062190
4554 *172 *325 0.002740
4555 *172 *520 0.003310
4556 *172 *423 0.047030
4557 *172 *181 0.008180
4558 *172 *455 0.106210
4559 *172 *424 0.007060
4560 *172 *457 0.006860
4561 *172 *299 0.003720
4562 *172 *298 0.220920
4563 *172 *297 0.094290
4564 *172 *291 0.078030
4565 *172 *290 0.111170
4566 *172 *289 0.099530
4567 *172 *173 0.787330
4568 *172 *21 0.712490
*END

*D_NET *173 2.880610
*CONN
*P *173 O
*CAP
4569 *173 *174 1.073400
4570 *173 *489 0.006880
4571 *173 *522 0.008640
4572 *173 *457 0.001560
4573 *173 *392 0.001970
4574 *173 *300 0.005500
4575 *173 *299 0.279760
4576 *173 *298 0.087060
4577 *173 *297 0.086610
4578 *173 *180 0.001810
4579 *173 *182 0.010010
4580 *173 *292 0.103140
4581 *173 *291 0.117990
4582 *173 *290 0.085900
4583 *173 *289 0.093430
4584 *173 *328 0.001690
4585 *173 *21 0.673580
4586 *173 *326 0.082970
4587 *173 *325 0.001060
4588 *173 *585 0.003310
4589 *173 *488 0.046980
4590 *173 *520 0.105550
4591 *173 *181 0.001810
*END

*D_NET *174 3.130840
*CONN
*P *174 O
*CAP
4592 *174 *328 0.003320
4593 *174 *21 0.671400
4594 *174 *175 0.124070
4595 *174 *326 0.028370
4596 *174 *325 0.001060
4597 *174 *650 0.003310
4598 *174 *553 0.046990
4599 *174 *585 0.105500
4600 *174 *181 0.158530
4601 *174 *183 0.129480
4602 *174 *652 0.001130
4603 *174 *554 0.008160
4604 *174 *587 0.012270
4605 *174 *489 0.001560
4606 *174 *522 0.004070
4607 *174 *424 0.001550
4608 *174 *457 0.004010
4609 *174 *359 0.002470
4610 *174 *392 0.004190
4611 *174 *301 0.014030
4612 *174 *300 0.344360
4613 *174 *299 0.092520
4614 *174 *298 0.090850
4615 *174 *297 0.085670
4616 *174 *180 0.471130
4617 *174 *293 0.128210
4618 *174 *182 0.132840
4619 *174 *292 0.141530
4620 *174 *22 0.029380
4621 *174 *291 0.099250
4622 *174 *290 0.096280
4623 *174 *289 0.093350
*END

*D_NET *175 3.519970
*CONN
*P *175 O
*CAP
4624 *175 *847 0.005430
4625 *175 *185 0.134570
4626 *175 *749 0.001690
4627 *175 *782 0.004030
4628 *175 *684 0.002160
4629 *175 *187 0.253590
4630 *175 *717 0.004790
4631 *175 *176 0.856860
4632 *175 *619 0.006780
4633 *175 *652 0.008630
4634 *175 *304 0.104310
4635 *175 *303 0.100080
4636 *175 *302 0.138060
4637 *175 *301 0.195500
4638 *175 *296 0.094380
4639 *175 *295 0.096960
4640 *175 *294 0.305190
4641 *175 *293 0.017660
4642 *175 *22 0.025870
4643 *175 *184 0.128860
4644 *175 *328 0.002280
4645 *175 *21 0.679600
4646 *175 *186 0.160330
4647 *175 *326 0.032390
4648 *175 *325 0.001680
4649 *175 *715 0.003500
4650 *175 *618 0.046990
4651 *175 *650 0.105460
4652 *175 *814 0.002340
*END

*D_NET *176 2.210030
*CONN
*P *176 O
*CAP
4653 *176 *21 0.682900
4654 *176 *186 0.001810
4655 *176 *326 0.055030
4656 *176 *178 0.571330
4657 *176 *325 0.001680
4658 *176 *780 0.003560
4659 *176 *683 0.046990
4660 *176 *715 0.105460
4661 *176 *847 0.001560
4662 *176 *185 0.010040
4663 *176 *782 0.001530
4664 *176 *684 0.006440
4665 *176 *187 0.001810
4666 *176 *717 0.007160
4667 *176 *179 0.001720
4668 *176 *304 0.094760
4669 *176 *303 0.115720
4670 *176 *302 0.163170
4671 *176 *296 0.086070
4672 *176 *295 0.238060
4673 *176 *294 0.012160
4674 *176 *22 0.001070
*END

*D_NET *178 1.663840
*CONN
*P *178 O
*CAP
4675 *178 *749 0.006390
4676 *178 *782 0.006750
4677 *178 *179 0.289160
4678 *178 *304 0.123020
4679 *178 *303 0.130360
4680 *178 *296 0.182880
4681 *178 *295 0.008900
4682 *178 *22 0.001240
4683 *178 *21 0.726110
4684 *178 *186 0.008200
4685 *178 *326 0.021070
4686 *178 *813 0.001550
4687 *178 *845 0.003990
4688 *178 *325 0.001770
4689 *178 *748 0.046990
4690 *178 *780 0.105460
*END

*D_NET *179 1.046440
*CONN
*P *179 O
*CAP
4691 *179 *21 0.761960
4692 *179 *326 0.007220
4693 *179 *813 0.046630
4694 *179 *845 0.105860
4695 *179 *814 0.006390
4696 *179 *847 0.006660
4697 *179 *187 0.007350
4698 *179 *304 0.098740
4699 *179 *296 0.005630
*END

*D_NET *180 1.673590
*CONN
*P *180 O
*CAP
4700 *180 *457 0.003200
4701 *180 *359 0.046500
4702 *180 *189 0.007350
4703 *180 *392 0.108310
4704 *180 *298 0.001940
4705 *180 *297 0.152040
4706 *180 *182 0.001720
4707 *180 *22 0.669880
4708 *180 *290 0.052200
4709 *180 *289 0.096600
4710 *180 *328 0.012770
4711 *180 *326 0.003260
4712 *180 *360 0.006390
4713 *180 *393 0.006660
4714 *180 *181 0.504770
*END

*D_NET *181 2.351060
*CONN
*P *181 O
*CAP
4715 *181 *190 0.008180
4716 *181 *522 0.003310
4717 *181 *424 0.047030
4718 *181 *457 0.106210
4719 *181 *299 0.003720
4720 *181 *298 0.220920
4721 *181 *297 0.094290
4722 *181 *182 0.787330
4723 *181 *22 0.712490
4724 *181 *291 0.078030
4725 *181 *290 0.111170
4726 *181 *289 0.099530
4727 *181 *328 0.062190
4728 *181 *425 0.007060
4729 *181 *458 0.006860
4730 *181 *326 0.002740
*END

*D_NET *182 2.880610
*CONN
*P *182 O
*CAP
4731 *182 *587 0.003310
4732 *182 *489 0.046980
4733 *182 *522 0.105550
4734 *182 *189 0.001810
4735 *182 *300 0.005500
4736 *182 *299 0.279760
4737 *182 *298 0.087060
4738 *182 *191 0.010010
4739 *182 *297 0.086610
4740 *182 *292 0.103140
4741 *182 *22 0.673580
4742 *182 *291 0.117990
4743 *182 *290 0.085900
4744 *182 *289 0.093430
4745 *182 *328 0.082970
4746 *182 *490 0.006880
4747 *182 *523 0.008640
4748 *182 *329 0.001690
4749 *182 *458 0.001560
4750 *182 *326 0.001060
4751 *182 *393 0.001970
4752 *182 *190 0.001810
4753 *182 *183 1.073400
*END

*D_NET *183 3.130840
*CONN
*P *183 O
*CAP
4754 *183 *458 0.004010
4755 *183 *326 0.001060
4756 *183 *360 0.002470
4757 *183 *393 0.004190
4758 *183 *190 0.158530
4759 *183 *192 0.129480
4760 *183 *652 0.003310
4761 *183 *554 0.046990
4762 *183 *587 0.105500
4763 *183 *189 0.471130
4764 *183 *301 0.014030
4765 *183 *300 0.344360
4766 *183 *299 0.092520
4767 *183 *298 0.090850
4768 *183 *191 0.132840
4769 *183 *24 0.029380
4770 *183 *297 0.085670
4771 *183 *293 0.128210
4772 *183 *292 0.141530
4773 *183 *22 0.671400
4774 *183 *291 0.099250
4775 *183 *653 0.001130
4776 *183 *290 0.096280
4777 *183 *184 0.124070
4778 *183 *555 0.008160
4779 *183 *289 0.093350
4780 *183 *588 0.012270
4781 *183 *328 0.028370
4782 *183 *490 0.001560
4783 *183 *523 0.004070
4784 *183 *329 0.003320
4785 *183 *425 0.001550
*END

*D_NET *184 3.519970
*CONN
*P *184 O
*CAP
4786 *184 *717 0.003500
4787 *184 *619 0.046990
4788 *184 *652 0.105460
4789 *184 *304 0.104310
4790 *184 *303 0.100080
4791 *184 *302 0.138060
4792 *184 *301 0.195500
4793 *184 *815 0.002340
4794 *184 *848 0.005430
4795 *184 *750 0.001690
4796 *184 *24 0.025870
4797 *184 *296 0.094380
4798 *184 *783 0.004030
4799 *184 *295 0.096960
4800 *184 *193 0.128860
4801 *184 *685 0.002160
4802 *184 *294 0.305190
4803 *184 *718 0.004790
4804 *184 *293 0.017660
4805 *184 *22 0.679600
4806 *184 *620 0.006780
4807 *184 *195 0.160330
4808 *184 *653 0.008630
4809 *184 *328 0.032390
4810 *184 *329 0.002280
4811 *184 *326 0.001680
4812 *184 *194 0.134570
4813 *184 *196 0.253590
4814 *184 *185 0.856860
*END

*D_NET *185 2.210030
*CONN
*P *185 O
*CAP
4815 *185 *186 0.571330
4816 *185 *326 0.001680
4817 *185 *194 0.010040
4818 *185 *196 0.001810
4819 *185 *782 0.003560
4820 *185 *684 0.046990
4821 *185 *187 0.001720
4822 *185 *717 0.105460
4823 *185 *304 0.094760
4824 *185 *303 0.115720
4825 *185 *302 0.163170
4826 *185 *848 0.001560
4827 *185 *24 0.001070
4828 *185 *296 0.086070
4829 *185 *783 0.001530
4830 *185 *295 0.238060
4831 *185 *685 0.006440
4832 *185 *294 0.012160
4833 *185 *718 0.007160
4834 *185 *22 0.682900
4835 *185 *195 0.001810
4836 *185 *328 0.055030
*END

*D_NET *186 1.663840
*CONN
*P *186 O
*CAP
4837 *186 *749 0.046990
4838 *186 *782 0.105460
4839 *186 *187 0.289160
4840 *186 *304 0.123020
4841 *186 *303 0.130360
4842 *186 *750 0.006390
4843 *186 *24 0.001240
4844 *186 *296 0.182880
4845 *186 *783 0.006750
4846 *186 *295 0.008900
4847 *186 *22 0.726110
4848 *186 *195 0.008200
4849 *186 *328 0.021070
4850 *186 *326 0.001770
4851 *186 *814 0.001550
4852 *186 *847 0.003990
*END

*D_NET *187 1.046440
*CONN
*P *187 O
*CAP
4853 *187 *328 0.007220
4854 *187 *814 0.046630
4855 *187 *196 0.007350
4856 *187 *847 0.105860
4857 *187 *304 0.098740
4858 *187 *815 0.006390
4859 *187 *848 0.006660
4860 *187 *296 0.005630
4861 *187 *22 0.761960
*END

*D_NET *189 1.673590
*CONN
*P *189 O
*CAP
4862 *189 *197 0.007350
4863 *189 *298 0.001940
4864 *189 *191 0.001720
4865 *189 *24 0.669880
4866 *189 *297 0.152040
4867 *189 *290 0.052200
4868 *189 *289 0.096600
4869 *189 *328 0.003260
4870 *189 *329 0.012770
4871 *189 *458 0.003200
4872 *189 *360 0.046500
4873 *189 *393 0.108310
4874 *189 *190 0.504770
4875 *189 *361 0.006390
4876 *189 *394 0.006660
*END

*D_NET *190 2.351060
*CONN
*P *190 O
*CAP
4877 *190 *198 0.008180
4878 *190 *426 0.007060
4879 *190 *459 0.006860
4880 *190 *299 0.003720
4881 *190 *298 0.220920
4882 *190 *191 0.787330
4883 *190 *24 0.712490
4884 *190 *297 0.094290
4885 *190 *291 0.078030
4886 *190 *290 0.111170
4887 *190 *289 0.099530
4888 *190 *328 0.002740
4889 *190 *523 0.003310
4890 *190 *329 0.062190
4891 *190 *425 0.047030
4892 *190 *458 0.106210
*END

*D_NET *191 2.879270
*CONN
*P *191 O
*CAP
4893 *191 *300 0.005500
4894 *191 *299 0.279810
4895 *191 *197 0.001810
4896 *191 *298 0.087120
4897 *191 *24 0.673580
4898 *191 *297 0.086670
4899 *191 *200 0.010010
4900 *191 *292 0.103140
4901 *191 *291 0.118050
4902 *191 *290 0.085960
4903 *191 *289 0.093490
4904 *191 *588 0.003310
4905 *191 *328 0.001060
4906 *191 *490 0.046980
4907 *191 *523 0.105550
4908 *191 *329 0.082970
4909 *191 *198 0.001810
4910 *191 *192 1.073400
4911 *191 *491 0.006880
4912 *191 *524 0.008640
4913 *191 *459 0.001560
4914 *191 *394 0.001970
*END

*D_NET *192 3.129300
*CONN
*P *192 O
*CAP
4915 *192 *198 0.158530
4916 *192 *654 0.001130
4917 *192 *556 0.008160
4918 *192 *201 0.129480
4919 *192 *589 0.012270
4920 *192 *491 0.001560
4921 *192 *524 0.004070
4922 *192 *426 0.001550
4923 *192 *459 0.004010
4924 *192 *361 0.002470
4925 *192 *394 0.004190
4926 *192 *301 0.014030
4927 *192 *300 0.344640
4928 *192 *299 0.092740
4929 *192 *197 0.471130
4930 *192 *298 0.091060
4931 *192 *24 0.671400
4932 *192 *297 0.085890
4933 *192 *200 0.132840
4934 *192 *193 0.124070
4935 *192 *25 0.029380
4936 *192 *293 0.128210
4937 *192 *292 0.141740
4938 *192 *291 0.099450
4939 *192 *653 0.003310
4940 *192 *290 0.096500
4941 *192 *555 0.046990
4942 *192 *289 0.093570
4943 *192 *588 0.105500
4944 *192 *328 0.001060
4945 *192 *329 0.028370
*END

*D_NET *193 3.517380
*CONN
*P *193 O
*CAP
4946 *193 *304 0.104530
4947 *193 *303 0.099460
4948 *193 *302 0.137430
4949 *193 *301 0.195500
4950 *193 *24 0.679600
4951 *193 *296 0.094600
4952 *193 *295 0.097180
4953 *193 *25 0.025870
4954 *193 *294 0.305470
4955 *193 *718 0.003500
4956 *193 *293 0.017660
4957 *193 *620 0.046990
4958 *193 *202 0.128860
4959 *193 *653 0.105460
4960 *193 *204 0.160330
4961 *193 *328 0.001680
4962 *193 *329 0.032390
4963 *193 *816 0.002340
4964 *193 *849 0.005430
4965 *193 *751 0.001690
4966 *193 *784 0.004030
4967 *193 *686 0.002160
4968 *193 *719 0.004790
4969 *193 *621 0.006780
4970 *193 *654 0.008630
4971 *193 *194 0.856860
4972 *193 *203 0.134570
4973 *193 *205 0.253590
*END

*D_NET *194 2.210260
*CONN
*P *194 O
*CAP
4974 *194 *849 0.001560
4975 *194 *784 0.001530
4976 *194 *686 0.006440
4977 *194 *719 0.007160
4978 *194 *203 0.010040
4979 *194 *196 0.001720
4980 *194 *205 0.001810
4981 *194 *304 0.094820
4982 *194 *303 0.115780
4983 *194 *302 0.163170
4984 *194 *24 0.682900
4985 *194 *296 0.086130
4986 *194 *783 0.003560
4987 *194 *295 0.238110
4988 *194 *685 0.046990
4989 *194 *25 0.001070
4990 *194 *294 0.012160
4991 *194 *718 0.105460
4992 *194 *195 0.571330
4993 *194 *204 0.001810
4994 *194 *328 0.001680
4995 *194 *329 0.055030
*END

*D_NET *195 1.663840
*CONN
*P *195 O
*CAP
4996 *195 *304 0.123020
4997 *195 *303 0.130360
4998 *195 *815 0.001550
4999 *195 *848 0.003990
5000 *195 *750 0.046990
5001 *195 *24 0.726110
5002 *195 *296 0.182880
5003 *195 *783 0.105460
5004 *195 *295 0.008900
5005 *195 *25 0.001240
5006 *195 *204 0.008200
5007 *195 *328 0.001770
5008 *195 *329 0.021070
5009 *195 *751 0.006390
5010 *195 *784 0.006750
5011 *195 *196 0.289160
*END

*D_NET *196 1.046430
*CONN
*P *196 O
*CAP
5012 *196 *816 0.006390
5013 *196 *849 0.006660
5014 *196 *205 0.007350
5015 *196 *304 0.098740
5016 *196 *815 0.046630
5017 *196 *848 0.105860
5018 *196 *24 0.761950
5019 *196 *296 0.005630
5020 *196 *329 0.007220
*END

*D_NET *197 1.778380
*CONN
*P *197 O
*CAP
5021 *197 *298 0.001940
5022 *197 *297 0.134150
5023 *197 *200 0.002990
5024 *197 *25 0.669880
5025 *197 *290 0.052200
5026 *197 *289 0.096950
5027 *197 *329 0.003260
5028 *197 *198 0.505000
5029 *197 *201 0.001890
5030 *197 *459 0.003200
5031 *197 *361 0.046500
5032 *197 *401 0.152110
5033 *197 *394 0.108310
*END

*D_NET *198 2.394300
*CONN
*P *198 O
*CAP
5034 *198 *201 0.001890
5035 *198 *531 0.001070
5036 *198 *524 0.003310
5037 *198 *426 0.047090
5038 *198 *466 0.155960
5039 *198 *459 0.106210
5040 *198 *401 0.006010
5041 *198 *299 0.003720
5042 *198 *298 0.196780
5043 *198 *297 0.086720
5044 *198 *200 0.788600
5045 *198 *25 0.714020
5046 *198 *291 0.077270
5047 *198 *290 0.107900
5048 *198 *289 0.094190
5049 *198 *329 0.003560
*END

*D_NET *200 2.931740
*CONN
*P *200 O
*CAP
5050 *200 *300 0.005500
5051 *200 *299 0.256360
5052 *200 *298 0.087440
5053 *200 *297 0.087100
5054 *200 *25 0.701410
5055 *200 *292 0.102330
5056 *200 *291 0.119270
5057 *200 *290 0.087230
5058 *200 *289 0.094760
5059 *200 *329 0.003980
5060 *200 *201 1.074630
5061 *200 *596 0.001070
5062 *200 *589 0.003310
5063 *200 *491 0.047200
5064 *200 *531 0.154330
5065 *200 *524 0.105820
*END

*D_NET *201 2.387770
*CONN
*P *201 O
*CAP
5066 *201 *661 0.001070
5067 *201 *654 0.003310
5068 *201 *556 0.047400
5069 *201 *596 0.154110
5070 *201 *589 0.105720
5071 *201 *301 0.013170
5072 *201 *300 0.332020
5073 *201 *299 0.104400
5074 *201 *298 0.104070
5075 *201 *297 0.103950
5076 *201 *25 0.697780
5077 *201 *293 0.127390
5078 *201 *292 0.145320
5079 *201 *202 0.124070
5080 *201 *291 0.104260
5081 *201 *290 0.104100
5082 *201 *289 0.111710
5083 *201 *329 0.003920
*END

*D_NET *202 2.950700
*CONN
*P *202 O
*CAP
5084 *202 *304 0.112050
5085 *202 *303 0.104230
5086 *202 *302 0.138810
5087 *202 *301 0.173500
5088 *202 *296 0.104090
5089 *202 *295 0.104510
5090 *202 *25 0.707330
5091 *202 *294 0.311210
5092 *202 *293 0.017640
5093 *202 *204 0.001890
5094 *202 *329 0.003780
5095 *202 *726 0.002140
5096 *202 *719 0.003730
5097 *202 *621 0.046990
5098 *202 *661 0.153350
5099 *202 *654 0.105460
5100 *202 *203 0.858100
5101 *202 *205 0.001890
*END

*D_NET *203 2.286320
*CONN
*P *203 O
*CAP
5102 *203 *791 0.002370
5103 *203 *784 0.003830
5104 *203 *686 0.046990
5105 *203 *726 0.153350
5106 *203 *719 0.105460
5107 *203 *205 0.002990
5108 *203 *304 0.095230
5109 *203 *303 0.114170
5110 *203 *302 0.141160
5111 *203 *296 0.087360
5112 *203 *295 0.237870
5113 *203 *25 0.707730
5114 *203 *294 0.012160
5115 *203 *204 0.572590
5116 *203 *329 0.003060
*END

*D_NET *204 1.745240
*CONN
*P *204 O
*CAP
5117 *204 *304 0.112040
5118 *204 *303 0.108930
5119 *204 *296 0.179980
5120 *204 *295 0.008900
5121 *204 *25 0.726850
5122 *204 *329 0.001830
5123 *204 *816 0.001610
5124 *204 *856 0.005520
5125 *204 *849 0.003990
5126 *204 *751 0.046990
5127 *204 *791 0.153750
5128 *204 *784 0.105460
5129 *204 *205 0.289390
*END

*D_NET *205 1.152700
*CONN
*P *205 O
*CAP
5130 *205 *816 0.046630
5131 *205 *856 0.152110
5132 *205 *849 0.105860
5133 *205 *304 0.080510
5134 *205 *296 0.005640
5135 *205 *25 0.761950
*END

*D_NET *297 27.515670
*CONN
*P *297 I
*CAP
5136 *297 *13 0.141710
5137 *297 *346 0.012290
5138 *297 *375 0.028030
5139 *297 *349 0.012290
5140 *297 *378 0.028030
5141 *297 *32 0.141710
5142 *297 *308 0.120070
5143 *297 *352 0.012290
5144 *297 *382 0.028030
5145 *297 *356 0.012290
5146 *297 *385 0.028030
5147 *297 *318 0.120070
5148 *297 *11 0.141710
5149 *297 *359 0.012290
5150 *297 *388 0.028030
5151 *297 *392 0.028030
5152 *297 *30 0.141710
5153 *297 *306 0.120070
5154 *297 *317 0.120070
5155 *297 *10 0.141710
5156 *297 *24 0.141710
5157 *297 *28 0.141710
5158 *297 *335 0.120070
5159 *297 *25 0.095060
5160 *297 *315 0.120070
5161 *297 *364 0.013150
5162 *297 *26 0.141710
5163 *297 *333 0.120070
5164 *297 *9 0.141710
5165 *297 *22 0.141710
5166 *297 *362 0.012290
5167 *297 *369 0.028710
5168 *297 *366 0.012290
5169 *297 *395 0.028030
5170 *297 *290 7.179920
5171 *297 *337 0.012290
5172 *297 *398 0.028030
5173 *297 *289 10.705100
5174 *297 *12 0.141710
5175 *297 *331 0.120070
5176 *297 *340 0.012290
5177 *297 *370 0.028030
5178 *297 *314 0.120070
5179 *297 *328 0.120070
5180 *297 *344 0.012290
5181 *297 *8 0.141710
5182 *297 *373 0.028030
5183 *297 *21 0.141710
5184 *297 *347 0.012290
5185 *297 *376 0.028030
5186 *297 *350 0.012290
5187 *297 *329 0.120060
5188 *297 *379 0.028030
5189 *297 *327 0.120070
5190 *297 *353 0.012290
5191 *297 *383 0.028030
5192 *297 *313 0.120070
5193 *297 *357 0.012290
5194 *297 *326 0.120070
5195 *297 *386 0.028030
5196 *297 *7 0.141710
5197 *297 *20 0.141710
5198 *297 *360 0.012290
5199 *297 *389 0.028030
5200 *297 *393 0.028030
5201 *297 *305 0.123420
5202 *297 *312 0.120070
5203 *297 *325 0.120070
5204 *297 *6 0.141710
5205 *297 *19 0.141710
5206 *297 *2 0.141710
5207 *297 *311 0.120070
5208 *297 *31 0.141710
5209 *297 *324 0.120070
5210 *297 *307 0.120070
5211 *297 *343 0.012290
5212 *297 *5 0.141710
5213 *297 *18 0.141710
5214 *297 *363 0.012290
5215 *297 *380 0.028110
5216 *297 *367 0.012290
5217 *297 *396 0.028030
5218 *297 *338 0.012290
5219 *297 *399 0.028030
5220 *297 *29 0.141710
5221 *297 *336 0.120070
5222 *297 *310 0.120070
5223 *297 *341 0.012290
5224 *297 *371 0.028030
5225 *297 *323 0.120070
5226 *297 *4 0.141710
5227 *297 *17 0.141710
5228 *297 *345 0.012290
5229 *297 *374 0.028030
5230 *297 *348 0.012290
5231 *297 *377 0.028030
5232 *297 *27 0.141710
5233 *297 *351 0.012290
5234 *297 *334 0.120070
5235 *297 *381 0.028030
5236 *297 *355 0.012290
5237 *297 *384 0.028030
5238 *297 *309 0.120070
5239 *297 *322 0.120070
5240 *297 *358 0.012290
5241 *297 *387 0.028030
5242 *297 *16 0.141710
5243 *297 *390 0.028030
5244 *297 *23 0.141710
5245 *297 *332 0.120070
5246 *297 *321 0.120070
5247 *297 *15 0.141710
5248 *297 *1 0.142320
5249 *297 *330 0.120070
5250 *297 *320 0.120070
5251 *297 *361 0.008660
5252 *297 *316 0.120140
5253 *297 *14 0.141710
5254 *297 *354 0.012290
5255 *297 *401 0.008030
5256 *297 *365 0.012290
5257 *297 *391 0.028030
5258 *297 *394 0.028090
5259 *297 *368 0.012290
5260 *297 *397 0.028030
5261 *297 *3 0.141710
5262 *297 *339 0.012290
5263 *297 *400 0.028030
5264 *297 *319 0.120070
5265 *297 *342 0.012290
5266 *297 *372 0.028030
*END

*D_NET *298 27.515010
*CONN
*P *298 I
*CAP
5267 *298 *421 0.012290
5268 *298 *450 0.028030
5269 *298 *32 0.141710
5270 *298 *424 0.012290
5271 *298 *308 0.120070
5272 *298 *453 0.028030
5273 *298 *457 0.028030
5274 *298 *318 0.120070
5275 *298 *11 0.141710
5276 *298 *30 0.141710
5277 *298 *306 0.120070
5278 *298 *317 0.120070
5279 *298 *10 0.141710
5280 *298 *24 0.141710
5281 *298 *28 0.141710
5282 *298 *335 0.120070
5283 *298 *429 0.013150
5284 *298 *427 0.012290
5285 *298 *25 0.095060
5286 *298 *434 0.028740
5287 *298 *431 0.012290
5288 *298 *460 0.028030
5289 *298 *315 0.120070
5290 *298 *26 0.141710
5291 *298 *333 0.120070
5292 *298 *9 0.141710
5293 *298 *402 0.012290
5294 *298 *22 0.141710
5295 *298 *463 0.028030
5296 *298 *291 7.180180
5297 *298 *405 0.012290
5298 *298 *435 0.028030
5299 *298 *290 10.704300
5300 *298 *409 0.012290
5301 *298 *438 0.028030
5302 *298 *412 0.012290
5303 *298 *12 0.141710
5304 *298 *441 0.028030
5305 *298 *331 0.120070
5306 *298 *314 0.120070
5307 *298 *328 0.120070
5308 *298 *415 0.012290
5309 *298 *444 0.028030
5310 *298 *8 0.141710
5311 *298 *21 0.141710
5312 *298 *418 0.012290
5313 *298 *448 0.028030
5314 *298 *422 0.012290
5315 *298 *451 0.028030
5316 *298 *329 0.120060
5317 *298 *327 0.120070
5318 *298 *425 0.012290
5319 *298 *454 0.028030
5320 *298 *313 0.120070
5321 *298 *458 0.028030
5322 *298 *326 0.120070
5323 *298 *7 0.141710
5324 *298 *20 0.141710
5325 *298 *305 0.123280
5326 *298 *312 0.120070
5327 *298 *325 0.120070
5328 *298 *6 0.141710
5329 *298 *19 0.141710
5330 *298 *2 0.141710
5331 *298 *408 0.012290
5332 *298 *428 0.012290
5333 *298 *445 0.028110
5334 *298 *311 0.120070
5335 *298 *31 0.141710
5336 *298 *324 0.120070
5337 *298 *432 0.012290
5338 *298 *461 0.028030
5339 *298 *307 0.120070
5340 *298 *5 0.141710
5341 *298 *18 0.141710
5342 *298 *403 0.012290
5343 *298 *464 0.028030
5344 *298 *406 0.012290
5345 *298 *436 0.028030
5346 *298 *410 0.012290
5347 *298 *439 0.028030
5348 *298 *29 0.141710
5349 *298 *336 0.120070
5350 *298 *413 0.012290
5351 *298 *442 0.028030
5352 *298 *310 0.120070
5353 *298 *323 0.120070
5354 *298 *4 0.141710
5355 *298 *416 0.012290
5356 *298 *17 0.141710
5357 *298 *446 0.028030
5358 *298 *420 0.012290
5359 *298 *449 0.028030
5360 *298 *423 0.012290
5361 *298 *452 0.028030
5362 *298 *27 0.141710
5363 *298 *334 0.120070
5364 *298 *455 0.028030
5365 *298 *309 0.120070
5366 *298 *322 0.120070
5367 *298 *16 0.141710
5368 *298 *23 0.141710
5369 *298 *332 0.120070
5370 *298 *321 0.120070
5371 *298 *15 0.141710
5372 *298 *1 0.142310
5373 *298 *330 0.120070
5374 *298 *426 0.008660
5375 *298 *466 0.008030
5376 *298 *419 0.012290
5377 *298 *459 0.028090
5378 *298 *430 0.012290
5379 *298 *456 0.028030
5380 *298 *320 0.120070
5381 *298 *433 0.012290
5382 *298 *316 0.120140
5383 *298 *462 0.028030
5384 *298 *14 0.141710
5385 *298 *404 0.012290
5386 *298 *465 0.028030
5387 *298 *407 0.012290
5388 *298 *437 0.028030
5389 *298 *411 0.012290
5390 *298 *440 0.028030
5391 *298 *3 0.141710
5392 *298 *414 0.012290
5393 *298 *319 0.120070
5394 *298 *443 0.028030
5395 *298 *13 0.141710
5396 *298 *417 0.012290
5397 *298 *447 0.028030
*END

*D_NET *299 27.514980
*CONN
*P *299 I
*CAP
5398 *299 *32 0.141710
5399 *299 *308 0.120070
5400 *299 *318 0.120070
5401 *299 *11 0.141710
5402 *299 *30 0.141710
5403 *299 *306 0.120070
5404 *299 *317 0.120070
5405 *299 *494 0.013150
5406 *299 *10 0.141710
5407 *299 *24 0.141710
5408 *299 *492 0.012290
5409 *299 *28 0.141710
5410 *299 *499 0.028740
5411 *299 *335 0.120070
5412 *299 *496 0.012290
5413 *299 *525 0.028030
5414 *299 *467 0.012290
5415 *299 *528 0.028030
5416 *299 *25 0.095060
5417 *299 *470 0.012290
5418 *299 *500 0.028030
5419 *299 *315 0.120070
5420 *299 *26 0.141710
5421 *299 *333 0.120070
5422 *299 *474 0.012290
5423 *299 *9 0.141710
5424 *299 *503 0.028030
5425 *299 *292 7.180180
5426 *299 *22 0.141710
5427 *299 *477 0.012290
5428 *299 *291 10.704300
5429 *299 *506 0.028030
5430 *299 *480 0.012290
5431 *299 *509 0.028030
5432 *299 *483 0.012290
5433 *299 *513 0.028030
5434 *299 *12 0.141710
5435 *299 *331 0.120070
5436 *299 *314 0.120070
5437 *299 *487 0.012290
5438 *299 *516 0.028030
5439 *299 *328 0.120070
5440 *299 *8 0.141710
5441 *299 *21 0.141710
5442 *299 *490 0.012290
5443 *299 *519 0.028030
5444 *299 *523 0.028030
5445 *299 *329 0.120060
5446 *299 *327 0.120070
5447 *299 *313 0.120070
5448 *299 *326 0.120070
5449 *299 *7 0.141710
5450 *299 *20 0.141710
5451 *299 *305 0.123250
5452 *299 *312 0.120070
5453 *299 *325 0.120070
5454 *299 *473 0.012290
5455 *299 *6 0.141710
5456 *299 *19 0.141710
5457 *299 *2 0.141710
5458 *299 *493 0.012290
5459 *299 *510 0.028110
5460 *299 *497 0.012290
5461 *299 *526 0.028030
5462 *299 *468 0.012290
5463 *299 *529 0.028030
5464 *299 *471 0.012290
5465 *299 *311 0.120070
5466 *299 *501 0.028030
5467 *299 *31 0.141710
5468 *299 *324 0.120070
5469 *299 *307 0.120070
5470 *299 *5 0.141710
5471 *299 *18 0.141710
5472 *299 *475 0.012290
5473 *299 *504 0.028030
5474 *299 *478 0.012290
5475 *299 *507 0.028030
5476 *299 *481 0.012290
5477 *299 *511 0.028030
5478 *299 *29 0.141710
5479 *299 *485 0.012290
5480 *299 *336 0.120070
5481 *299 *514 0.028030
5482 *299 *310 0.120070
5483 *299 *323 0.120070
5484 *299 *488 0.012290
5485 *299 *517 0.028030
5486 *299 *4 0.141710
5487 *299 *17 0.141710
5488 *299 *520 0.028030
5489 *299 *27 0.141710
5490 *299 *334 0.120070
5491 *299 *309 0.120070
5492 *299 *322 0.120070
5493 *299 *16 0.141710
5494 *299 *23 0.141710
5495 *299 *332 0.120070
5496 *299 *491 0.008660
5497 *299 *531 0.008030
5498 *299 *321 0.120070
5499 *299 *524 0.028090
5500 *299 *484 0.012290
5501 *299 *15 0.141710
5502 *299 *1 0.142310
5503 *299 *330 0.120070
5504 *299 *495 0.012290
5505 *299 *521 0.028030
5506 *299 *498 0.012290
5507 *299 *527 0.028030
5508 *299 *469 0.012290
5509 *299 *530 0.028030
5510 *299 *320 0.120070
5511 *299 *472 0.012290
5512 *299 *502 0.028030
5513 *299 *316 0.120140
5514 *299 *14 0.141710
5515 *299 *476 0.012290
5516 *299 *505 0.028030
5517 *299 *479 0.012290
5518 *299 *508 0.028030
5519 *299 *482 0.012290
5520 *299 *512 0.028030
5521 *299 *3 0.141710
5522 *299 *486 0.012290
5523 *299 *515 0.028030
5524 *299 *319 0.120070
5525 *299 *489 0.012290
5526 *299 *13 0.141710
5527 *299 *518 0.028030
5528 *299 *522 0.028030
*END

*D_NET *300 27.514970
*CONN
*P *300 I
*CAP
5529 *300 *318 0.120070
5530 *300 *11 0.141710
5531 *300 *30 0.141710
5532 *300 *306 0.120070
5533 *300 *559 0.013150
5534 *300 *557 0.012290
5535 *300 *564 0.028740
5536 *300 *561 0.012290
5537 *300 *590 0.028030
5538 *300 *317 0.120070
5539 *300 *10 0.141710
5540 *300 *532 0.012290
5541 *300 *593 0.028030
5542 *300 *24 0.141710
5543 *300 *28 0.141710
5544 *300 *335 0.120070
5545 *300 *535 0.012290
5546 *300 *565 0.028030
5547 *300 *539 0.012290
5548 *300 *568 0.028030
5549 *300 *25 0.095060
5550 *300 *542 0.012290
5551 *300 *571 0.028030
5552 *300 *293 7.180180
5553 *300 *315 0.120070
5554 *300 *26 0.141710
5555 *300 *545 0.012290
5556 *300 *574 0.028030
5557 *300 *333 0.120070
5558 *300 *9 0.141710
5559 *300 *292 10.704300
5560 *300 *22 0.141710
5561 *300 *548 0.012290
5562 *300 *578 0.028030
5563 *300 *552 0.012290
5564 *300 *581 0.028030
5565 *300 *555 0.012290
5566 *300 *584 0.028030
5567 *300 *12 0.141710
5568 *300 *331 0.120070
5569 *300 *588 0.028030
5570 *300 *314 0.120070
5571 *300 *328 0.120070
5572 *300 *8 0.141710
5573 *300 *21 0.141710
5574 *300 *329 0.120060
5575 *300 *327 0.120070
5576 *300 *313 0.120070
5577 *300 *326 0.120070
5578 *300 *7 0.141710
5579 *300 *20 0.141710
5580 *300 *305 0.123240
5581 *300 *538 0.012290
5582 *300 *558 0.012290
5583 *300 *575 0.028110
5584 *300 *312 0.120070
5585 *300 *562 0.012290
5586 *300 *325 0.120070
5587 *300 *591 0.028030
5588 *300 *6 0.141710
5589 *300 *19 0.141710
5590 *300 *2 0.141710
5591 *300 *533 0.012290
5592 *300 *594 0.028030
5593 *300 *536 0.012290
5594 *300 *566 0.028030
5595 *300 *540 0.012290
5596 *300 *569 0.028030
5597 *300 *543 0.012290
5598 *300 *572 0.028030
5599 *300 *311 0.120070
5600 *300 *31 0.141710
5601 *300 *324 0.120070
5602 *300 *307 0.120070
5603 *300 *5 0.141710
5604 *300 *546 0.012290
5605 *300 *576 0.028030
5606 *300 *18 0.141710
5607 *300 *550 0.012290
5608 *300 *579 0.028030
5609 *300 *553 0.012290
5610 *300 *582 0.028030
5611 *300 *585 0.028030
5612 *300 *29 0.141710
5613 *300 *336 0.120070
5614 *300 *310 0.120070
5615 *300 *323 0.120070
5616 *300 *4 0.141710
5617 *300 *17 0.141710
5618 *300 *27 0.141710
5619 *300 *334 0.120070
5620 *300 *556 0.008660
5621 *300 *309 0.120070
5622 *300 *322 0.120070
5623 *300 *596 0.008030
5624 *300 *16 0.141710
5625 *300 *589 0.028090
5626 *300 *23 0.141710
5627 *300 *332 0.120070
5628 *300 *549 0.012290
5629 *300 *560 0.012290
5630 *300 *586 0.028030
5631 *300 *321 0.120070
5632 *300 *563 0.012290
5633 *300 *592 0.028030
5634 *300 *15 0.141710
5635 *300 *1 0.142310
5636 *300 *330 0.120070
5637 *300 *534 0.012290
5638 *300 *595 0.028030
5639 *300 *537 0.012290
5640 *300 *567 0.028030
5641 *300 *541 0.012290
5642 *300 *570 0.028030
5643 *300 *544 0.012290
5644 *300 *573 0.028030
5645 *300 *320 0.120070
5646 *300 *316 0.120140
5647 *300 *14 0.141710
5648 *300 *547 0.012290
5649 *300 *577 0.028030
5650 *300 *551 0.012290
5651 *300 *580 0.028030
5652 *300 *554 0.012290
5653 *300 *583 0.028030
5654 *300 *3 0.141710
5655 *300 *587 0.028030
5656 *300 *319 0.120070
5657 *300 *13 0.141710
5658 *300 *32 0.141710
5659 *300 *308 0.120070
*END

*D_NET *301 27.514970
*CONN
*P *301 I
*CAP
5660 *301 *624 0.013150
5661 *301 *318 0.120070
5662 *301 *11 0.141710
5663 *301 *622 0.012290
5664 *301 *629 0.028740
5665 *301 *30 0.141710
5666 *301 *626 0.012290
5667 *301 *655 0.028030
5668 *301 *306 0.120070
5669 *301 *597 0.012290
5670 *301 *658 0.028030
5671 *301 *600 0.012290
5672 *301 *630 0.028030
5673 *301 *317 0.120070
5674 *301 *604 0.012290
5675 *301 *633 0.028030
5676 *301 *10 0.141710
5677 *301 *24 0.141710
5678 *301 *28 0.141710
5679 *301 *335 0.120070
5680 *301 *607 0.012290
5681 *301 *636 0.028030
5682 *301 *610 0.012290
5683 *301 *639 0.028030
5684 *301 *25 0.095060
5685 *301 *613 0.012290
5686 *301 *294 7.180180
5687 *301 *643 0.028030
5688 *301 *293 10.704300
5689 *301 *617 0.012290
5690 *301 *315 0.120070
5691 *301 *646 0.028030
5692 *301 *26 0.141710
5693 *301 *333 0.120070
5694 *301 *9 0.141710
5695 *301 *22 0.141710
5696 *301 *620 0.012290
5697 *301 *649 0.028030
5698 *301 *653 0.028030
5699 *301 *12 0.141710
5700 *301 *331 0.120070
5701 *301 *314 0.120070
5702 *301 *328 0.120070
5703 *301 *8 0.141710
5704 *301 *21 0.141710
5705 *301 *329 0.120060
5706 *301 *327 0.120070
5707 *301 *313 0.120070
5708 *301 *326 0.120070
5709 *301 *603 0.012290
5710 *301 *7 0.141710
5711 *301 *20 0.141710
5712 *301 *623 0.012290
5713 *301 *640 0.028110
5714 *301 *627 0.012290
5715 *301 *305 0.123240
5716 *301 *656 0.028030
5717 *301 *598 0.012290
5718 *301 *659 0.028030
5719 *301 *601 0.012290
5720 *301 *312 0.120070
5721 *301 *631 0.028030
5722 *301 *325 0.120070
5723 *301 *6 0.141710
5724 *301 *605 0.012290
5725 *301 *19 0.141710
5726 *301 *634 0.028030
5727 *301 *2 0.141710
5728 *301 *608 0.012290
5729 *301 *637 0.028030
5730 *301 *611 0.012290
5731 *301 *641 0.028030
5732 *301 *615 0.012290
5733 *301 *644 0.028030
5734 *301 *311 0.120070
5735 *301 *31 0.141710
5736 *301 *324 0.120070
5737 *301 *618 0.012290
5738 *301 *307 0.120070
5739 *301 *647 0.028030
5740 *301 *5 0.141710
5741 *301 *18 0.141710
5742 *301 *650 0.028030
5743 *301 *29 0.141710
5744 *301 *336 0.120070
5745 *301 *310 0.120070
5746 *301 *323 0.120070
5747 *301 *621 0.008660
5748 *301 *4 0.141710
5749 *301 *17 0.141710
5750 *301 *661 0.008030
5751 *301 *654 0.028090
5752 *301 *27 0.141710
5753 *301 *334 0.120070
5754 *301 *309 0.120070
5755 *301 *322 0.120070
5756 *301 *614 0.012290
5757 *301 *16 0.141710
5758 *301 *625 0.012290
5759 *301 *651 0.028030
5760 *301 *23 0.141710
5761 *301 *332 0.120070
5762 *301 *628 0.012290
5763 *301 *657 0.028030
5764 *301 *599 0.012290
5765 *301 *660 0.028030
5766 *301 *321 0.120070
5767 *301 *602 0.012290
5768 *301 *632 0.028030
5769 *301 *15 0.141710
5770 *301 *606 0.012290
5771 *301 *1 0.142310
5772 *301 *635 0.028030
5773 *301 *330 0.120070
5774 *301 *609 0.012290
5775 *301 *638 0.028030
5776 *301 *612 0.012290
5777 *301 *642 0.028030
5778 *301 *616 0.012290
5779 *301 *645 0.028030
5780 *301 *320 0.120070
5781 *301 *316 0.120140
5782 *301 *619 0.012290
5783 *301 *14 0.141710
5784 *301 *648 0.028030
5785 *301 *652 0.028030
5786 *301 *3 0.141710
5787 *301 *319 0.120070
5788 *301 *13 0.141710
5789 *301 *32 0.141710
5790 *301 *308 0.120070
*END

*D_NET *302 27.515290
*CONN
*P *302 I
*CAP
5791 *302 *662 0.012290
5792 *302 *11 0.141720
5793 *302 *723 0.028030
5794 *302 *665 0.012290
5795 *302 *695 0.028030
5796 *302 *30 0.141720
5797 *302 *306 0.120070
5798 *302 *669 0.012290
5799 *302 *698 0.028030
5800 *302 *672 0.012290
5801 *302 *701 0.028030
5802 *302 *317 0.120070
5803 *302 *675 0.012290
5804 *302 *704 0.028030
5805 *302 *10 0.141720
5806 *302 *24 0.141720
5807 *302 *28 0.141720
5808 *302 *678 0.012290
5809 *302 *335 0.120070
5810 *302 *708 0.028030
5811 *302 *682 0.012290
5812 *302 *711 0.028030
5813 *302 *295 7.180180
5814 *302 *685 0.012290
5815 *302 *714 0.028030
5816 *302 *25 0.095070
5817 *302 *294 10.704300
5818 *302 *718 0.028030
5819 *302 *315 0.120070
5820 *302 *26 0.141720
5821 *302 *333 0.120070
5822 *302 *9 0.141720
5823 *302 *22 0.141720
5824 *302 *12 0.141720
5825 *302 *331 0.120070
5826 *302 *314 0.120070
5827 *302 *328 0.120070
5828 *302 *8 0.141720
5829 *302 *21 0.141720
5830 *302 *668 0.012290
5831 *302 *329 0.120060
5832 *302 *327 0.120070
5833 *302 *688 0.012290
5834 *302 *705 0.028110
5835 *302 *313 0.120070
5836 *302 *692 0.012290
5837 *302 *721 0.028030
5838 *302 *326 0.120070
5839 *302 *7 0.141720
5840 *302 *20 0.141720
5841 *302 *663 0.012290
5842 *302 *724 0.028030
5843 *302 *666 0.012290
5844 *302 *696 0.028030
5845 *302 *305 0.123240
5846 *302 *670 0.012290
5847 *302 *699 0.028030
5848 *302 *673 0.012290
5849 *302 *702 0.028030
5850 *302 *312 0.120070
5851 *302 *325 0.120070
5852 *302 *676 0.012290
5853 *302 *6 0.141720
5854 *302 *706 0.028030
5855 *302 *19 0.141720
5856 *302 *2 0.141720
5857 *302 *680 0.012290
5858 *302 *709 0.028030
5859 *302 *683 0.012290
5860 *302 *712 0.028030
5861 *302 *715 0.028030
5862 *302 *311 0.120070
5863 *302 *31 0.141720
5864 *302 *324 0.120070
5865 *302 *307 0.120070
5866 *302 *5 0.141720
5867 *302 *18 0.141720
5868 *302 *686 0.008660
5869 *302 *726 0.008030
5870 *302 *719 0.028090
5871 *302 *29 0.141720
5872 *302 *336 0.120070
5873 *302 *310 0.120070
5874 *302 *323 0.120070
5875 *302 *4 0.141720
5876 *302 *17 0.141720
5877 *302 *679 0.012290
5878 *302 *27 0.141720
5879 *302 *334 0.120070
5880 *302 *690 0.012290
5881 *302 *716 0.028030
5882 *302 *309 0.120070
5883 *302 *322 0.120070
5884 *302 *693 0.012290
5885 *302 *722 0.028030
5886 *302 *16 0.141720
5887 *302 *664 0.012290
5888 *302 *725 0.028030
5889 *302 *23 0.141720
5890 *302 *332 0.120070
5891 *302 *667 0.012290
5892 *302 *697 0.028030
5893 *302 *671 0.012290
5894 *302 *700 0.028030
5895 *302 *674 0.012290
5896 *302 *703 0.028030
5897 *302 *321 0.120070
5898 *302 *15 0.141720
5899 *302 *677 0.012290
5900 *302 *707 0.028030
5901 *302 *1 0.142320
5902 *302 *330 0.120070
5903 *302 *681 0.012290
5904 *302 *710 0.028030
5905 *302 *684 0.012290
5906 *302 *713 0.028030
5907 *302 *717 0.028030
5908 *302 *320 0.120070
5909 *302 *316 0.120140
5910 *302 *14 0.141720
5911 *302 *3 0.141720
5912 *302 *319 0.120070
5913 *302 *13 0.141720
5914 *302 *689 0.013150
5915 *302 *32 0.141720
5916 *302 *308 0.120070
5917 *302 *687 0.012290
5918 *302 *694 0.028740
5919 *302 *691 0.012290
5920 *302 *720 0.028030
5921 *302 *318 0.120070
*END

*D_NET *303 27.515400
*CONN
*P *303 I
*CAP
5922 *303 *737 0.012290
5923 *303 *766 0.028030
5924 *303 *30 0.141740
5925 *303 *306 0.120070
5926 *303 *740 0.012290
5927 *303 *769 0.028030
5928 *303 *743 0.012290
5929 *303 *773 0.028030
5930 *303 *747 0.012290
5931 *303 *317 0.120070
5932 *303 *776 0.028030
5933 *303 *10 0.141740
5934 *303 *750 0.012290
5935 *303 *24 0.141750
5936 *303 *779 0.028030
5937 *303 *28 0.141740
5938 *303 *335 0.120070
5939 *303 *296 7.180620
5940 *303 *783 0.028030
5941 *303 *295 10.703300
5942 *303 *25 0.095160
5943 *303 *315 0.120070
5944 *303 *26 0.141740
5945 *303 *333 0.120070
5946 *303 *9 0.141740
5947 *303 *22 0.141740
5948 *303 *12 0.141740
5949 *303 *331 0.120070
5950 *303 *314 0.120070
5951 *303 *733 0.012290
5952 *303 *328 0.120070
5953 *303 *8 0.141740
5954 *303 *21 0.141740
5955 *303 *753 0.012290
5956 *303 *770 0.028110
5957 *303 *757 0.012290
5958 *303 *786 0.028030
5959 *303 *329 0.120060
5960 *303 *327 0.120070
5961 *303 *728 0.012290
5962 *303 *789 0.028030
5963 *303 *731 0.012290
5964 *303 *761 0.028030
5965 *303 *313 0.120070
5966 *303 *326 0.120070
5967 *303 *7 0.141740
5968 *303 *735 0.012290
5969 *303 *764 0.028030
5970 *303 *20 0.141740
5971 *303 *738 0.012290
5972 *303 *767 0.028030
5973 *303 *305 0.123220
5974 *303 *741 0.012290
5975 *303 *771 0.028030
5976 *303 *745 0.012290
5977 *303 *774 0.028030
5978 *303 *312 0.120070
5979 *303 *325 0.120070
5980 *303 *748 0.012290
5981 *303 *777 0.028030
5982 *303 *6 0.141740
5983 *303 *19 0.141740
5984 *303 *2 0.141740
5985 *303 *780 0.028030
5986 *303 *751 0.008670
5987 *303 *791 0.007980
5988 *303 *311 0.120070
5989 *303 *31 0.141740
5990 *303 *784 0.028090
5991 *303 *324 0.120070
5992 *303 *307 0.120070
5993 *303 *5 0.141740
5994 *303 *18 0.141740
5995 *303 *29 0.141740
5996 *303 *336 0.120070
5997 *303 *310 0.120070
5998 *303 *323 0.120070
5999 *303 *4 0.141740
6000 *303 *744 0.012290
6001 *303 *17 0.141740
6002 *303 *755 0.012290
6003 *303 *781 0.028030
6004 *303 *758 0.012290
6005 *303 *787 0.028030
6006 *303 *27 0.141740
6007 *303 *334 0.120070
6008 *303 *729 0.012290
6009 *303 *790 0.028030
6010 *303 *309 0.120070
6011 *303 *732 0.012290
6012 *303 *322 0.120070
6013 *303 *762 0.028030
6014 *303 *16 0.141740
6015 *303 *736 0.012290
6016 *303 *765 0.028030
6017 *303 *23 0.141740
6018 *303 *739 0.012290
6019 *303 *768 0.028030
6020 *303 *332 0.120070
6021 *303 *742 0.012290
6022 *303 *772 0.028030
6023 *303 *746 0.012290
6024 *303 *775 0.028030
6025 *303 *321 0.120070
6026 *303 *749 0.012290
6027 *303 *778 0.028030
6028 *303 *15 0.141740
6029 *303 *1 0.142350
6030 *303 *330 0.120070
6031 *303 *782 0.028030
6032 *303 *320 0.120070
6033 *303 *316 0.120140
6034 *303 *14 0.141740
6035 *303 *3 0.141740
6036 *303 *754 0.013150
6037 *303 *319 0.120070
6038 *303 *13 0.141740
6039 *303 *752 0.012290
6040 *303 *759 0.028740
6041 *303 *756 0.012290
6042 *303 *785 0.028030
6043 *303 *32 0.141740
6044 *303 *727 0.012290
6045 *303 *308 0.120070
6046 *303 *788 0.028030
6047 *303 *730 0.012290
6048 *303 *760 0.028030
6049 *303 *318 0.120070
6050 *303 *734 0.012290
6051 *303 *763 0.028030
6052 *303 *11 0.141740
*END

*D_NET *304 20.789680
*CONN
*P *304 I
*CAP
6053 *304 *306 0.116710
6054 *304 *841 0.028030
6055 *304 *815 0.012290
6056 *304 *844 0.028030
6057 *304 *848 0.028030
6058 *304 *317 0.116710
6059 *304 *10 0.159290
6060 *304 *24 0.159280
6061 *304 *28 0.159290
6062 *304 *335 0.116710
6063 *304 *296 10.704200
6064 *304 *25 0.112630
6065 *304 *315 0.116710
6066 *304 *26 0.159290
6067 *304 *333 0.116710
6068 *304 *9 0.159290
6069 *304 *22 0.159290
6070 *304 *798 0.012290
6071 *304 *818 0.012290
6072 *304 *835 0.028110
6073 *304 *12 0.159290
6074 *304 *331 0.116710
6075 *304 *822 0.012290
6076 *304 *314 0.116710
6077 *304 *851 0.028030
6078 *304 *328 0.116710
6079 *304 *8 0.159290
6080 *304 *21 0.159290
6081 *304 *793 0.012290
6082 *304 *854 0.028030
6083 *304 *796 0.012290
6084 *304 *826 0.028030
6085 *304 *329 0.116700
6086 *304 *800 0.012290
6087 *304 *829 0.028030
6088 *304 *327 0.116710
6089 *304 *803 0.012290
6090 *304 *832 0.028030
6091 *304 *313 0.116710
6092 *304 *326 0.116710
6093 *304 *806 0.012290
6094 *304 *836 0.028030
6095 *304 *7 0.159290
6096 *304 *20 0.159290
6097 *304 *810 0.012290
6098 *304 *839 0.028030
6099 *304 *305 0.119850
6100 *304 *813 0.012290
6101 *304 *842 0.028030
6102 *304 *816 0.008660
6103 *304 *845 0.028030
6104 *304 *312 0.116710
6105 *304 *856 0.008030
6106 *304 *325 0.116710
6107 *304 *6 0.159290
6108 *304 *19 0.159290
6109 *304 *2 0.159290
6110 *304 *849 0.028090
6111 *304 *311 0.116710
6112 *304 *31 0.159290
6113 *304 *324 0.116710
6114 *304 *307 0.116710
6115 *304 *5 0.159290
6116 *304 *18 0.159290
6117 *304 *809 0.012290
6118 *304 *820 0.012290
6119 *304 *29 0.159290
6120 *304 *846 0.028030
6121 *304 *336 0.116710
6122 *304 *310 0.116710
6123 *304 *323 0.116710
6124 *304 *823 0.012290
6125 *304 *852 0.028030
6126 *304 *4 0.159290
6127 *304 *17 0.159290
6128 *304 *794 0.012290
6129 *304 *855 0.028030
6130 *304 *797 0.012290
6131 *304 *827 0.028030
6132 *304 *27 0.159290
6133 *304 *334 0.116710
6134 *304 *801 0.012290
6135 *304 *830 0.028030
6136 *304 *804 0.012290
6137 *304 *309 0.116710
6138 *304 *833 0.028030
6139 *304 *322 0.116710
6140 *304 *807 0.012290
6141 *304 *16 0.159290
6142 *304 *837 0.028030
6143 *304 *811 0.012290
6144 *304 *840 0.028030
6145 *304 *23 0.159290
6146 *304 *332 0.116710
6147 *304 *814 0.012290
6148 *304 *843 0.028030
6149 *304 *847 0.028030
6150 *304 *321 0.116710
6151 *304 *15 0.159290
6152 *304 *1 0.159890
6153 *304 *330 0.116710
6154 *304 *320 0.116710
6155 *304 *316 0.116780
6156 *304 *14 0.159290
6157 *304 *819 0.013150
6158 *304 *817 0.012290
6159 *304 *824 0.028740
6160 *304 *3 0.159290
6161 *304 *821 0.012290
6162 *304 *850 0.028030
6163 *304 *319 0.116710
6164 *304 *792 0.012290
6165 *304 *13 0.159290
6166 *304 *853 0.028030
6167 *304 *795 0.012290
6168 *304 *825 0.028030
6169 *304 *799 0.012290
6170 *304 *828 0.028030
6171 *304 *32 0.159290
6172 *304 *308 0.116710
6173 *304 *802 0.012290
6174 *304 *831 0.028030
6175 *304 *318 0.116710
6176 *304 *805 0.012290
6177 *304 *834 0.028030
6178 *304 *11 0.159290
6179 *304 *808 0.012290
6180 *304 *838 0.028030
6181 *304 *30 0.159290
6182 *304 *812 0.012290
*END

*D_NET *289 10.566090
*CONN
*P *289 I
*CAP
6183 *289 *320 0.166420
6184 *289 *361 0.024930
6185 *289 *316 0.166520
6186 *289 *14 0.125960
6187 *289 *354 0.024880
6188 *289 *401 0.001770
6189 *289 *365 0.024880
6190 *289 *391 0.013790
6191 *289 *394 0.006980
6192 *289 *368 0.024880
6193 *289 *397 0.013790
6194 *289 *3 0.125960
6195 *289 *339 0.024880
6196 *289 *400 0.013790
6197 *289 *319 0.166420
6198 *289 *342 0.024880
6199 *289 *372 0.013790
6200 *289 *13 0.125960
6201 *289 *346 0.024880
6202 *289 *375 0.013790
6203 *289 *349 0.024880
6204 *289 *378 0.013790
6205 *289 *32 0.125960
6206 *289 *308 0.166420
6207 *289 *352 0.024880
6208 *289 *382 0.013790
6209 *289 *356 0.024880
6210 *289 *385 0.013790
6211 *289 *318 0.166420
6212 *289 *11 0.125960
6213 *289 *359 0.024880
6214 *289 *388 0.013790
6215 *289 *392 0.013790
6216 *289 *30 0.125960
6217 *289 *306 0.166420
6218 *289 *317 0.166420
6219 *289 *10 0.125960
6220 *289 *24 0.125960
6221 *289 *28 0.125960
6222 *289 *335 0.166420
6223 *289 *25 0.096060
6224 *289 *315 0.166420
6225 *289 *364 0.025770
6226 *289 *26 0.125960
6227 *289 *333 0.166420
6228 *289 *9 0.125960
6229 *289 *22 0.125960
6230 *289 *362 0.024880
6231 *289 *369 0.014400
6232 *289 *366 0.024880
6233 *289 *395 0.013790
6234 *289 *337 0.024880
6235 *289 *398 0.013790
6236 *289 *12 0.125960
6237 *289 *331 0.166420
6238 *289 *340 0.024880
6239 *289 *370 0.013790
6240 *289 *314 0.166420
6241 *289 *328 0.166420
6242 *289 *8 0.125960
6243 *289 *344 0.024880
6244 *289 *373 0.013790
6245 *289 *21 0.125960
6246 *289 *347 0.024880
6247 *289 *376 0.013790
6248 *289 *350 0.024880
6249 *289 *329 0.166420
6250 *289 *379 0.013790
6251 *289 *327 0.166420
6252 *289 *353 0.024880
6253 *289 *383 0.013790
6254 *289 *313 0.166420
6255 *289 *357 0.024880
6256 *289 *326 0.166420
6257 *289 *386 0.013790
6258 *289 *7 0.125960
6259 *289 *20 0.125960
6260 *289 *360 0.024880
6261 *289 *389 0.013790
6262 *289 *393 0.013790
6263 *289 *305 0.171070
6264 *289 *312 0.166420
6265 *289 *325 0.166420
6266 *289 *6 0.125960
6267 *289 *19 0.125960
6268 *289 *2 0.125960
6269 *289 *311 0.166420
6270 *289 *31 0.125960
6271 *289 *324 0.166420
6272 *289 *307 0.166420
6273 *289 *343 0.024880
6274 *289 *5 0.125960
6275 *289 *18 0.125960
6276 *289 *363 0.024880
6277 *289 *380 0.013800
6278 *289 *367 0.024880
6279 *289 *396 0.013790
6280 *289 *338 0.024880
6281 *289 *399 0.013790
6282 *289 *29 0.125960
6283 *289 *336 0.166420
6284 *289 *310 0.166420
6285 *289 *341 0.024880
6286 *289 *371 0.013790
6287 *289 *323 0.166420
6288 *289 *4 0.125960
6289 *289 *17 0.125960
6290 *289 *345 0.024880
6291 *289 *374 0.013790
6292 *289 *348 0.024880
6293 *289 *377 0.013790
6294 *289 *27 0.125960
6295 *289 *351 0.024880
6296 *289 *334 0.166420
6297 *289 *381 0.013790
6298 *289 *355 0.024880
6299 *289 *384 0.013790
6300 *289 *309 0.166420
6301 *289 *322 0.166420
6302 *289 *358 0.024880
6303 *289 *387 0.013790
6304 *289 *16 0.125960
6305 *289 *390 0.013790
6306 *289 *23 0.125960
6307 *289 *332 0.166420
6308 *289 *321 0.166420
6309 *289 *15 0.125960
6310 *289 *1 0.127080
6311 *289 *330 0.166420
*END

*D_NET *290 8.339300
*CONN
*P *290 I
*CAP
6312 *290 *459 0.006980
6313 *290 *430 0.024880
6314 *290 *456 0.013790
6315 *290 *320 0.084690
6316 *290 *433 0.024880
6317 *290 *316 0.084790
6318 *290 *462 0.013790
6319 *290 *14 0.136690
6320 *290 *404 0.024880
6321 *290 *465 0.013790
6322 *290 *391 0.001410
6323 *290 *407 0.024880
6324 *290 *437 0.013790
6325 *290 *394 0.001410
6326 *290 *397 0.001410
6327 *290 *411 0.024880
6328 *290 *440 0.013790
6329 *290 *3 0.136690
6330 *290 *400 0.001410
6331 *290 *414 0.024880
6332 *290 *319 0.084690
6333 *290 *443 0.013790
6334 *290 *372 0.001410
6335 *290 *13 0.136690
6336 *290 *417 0.024880
6337 *290 *447 0.013790
6338 *290 *375 0.001410
6339 *290 *421 0.024880
6340 *290 *450 0.013790
6341 *290 *378 0.001410
6342 *290 *32 0.136690
6343 *290 *424 0.024880
6344 *290 *308 0.084690
6345 *290 *453 0.013790
6346 *290 *382 0.001410
6347 *290 *457 0.013790
6348 *290 *385 0.001410
6349 *290 *318 0.084690
6350 *290 *11 0.136690
6351 *290 *388 0.001410
6352 *290 *392 0.001410
6353 *290 *30 0.136690
6354 *290 *306 0.084690
6355 *290 *317 0.084690
6356 *290 *10 0.136690
6357 *290 *24 0.136690
6358 *290 *28 0.136690
6359 *290 *335 0.084690
6360 *290 *429 0.025770
6361 *290 *427 0.024880
6362 *290 *25 0.106800
6363 *290 *434 0.014400
6364 *290 *431 0.024880
6365 *290 *460 0.013790
6366 *290 *315 0.084690
6367 *290 *26 0.136690
6368 *290 *333 0.084690
6369 *290 *9 0.136690
6370 *290 *402 0.024880
6371 *290 *22 0.136690
6372 *290 *463 0.013790
6373 *290 *369 0.001410
6374 *290 *405 0.024880
6375 *290 *435 0.013790
6376 *290 *395 0.001410
6377 *290 *409 0.024880
6378 *290 *438 0.013790
6379 *290 *398 0.001410
6380 *290 *412 0.024880
6381 *290 *12 0.136690
6382 *290 *441 0.013790
6383 *290 *331 0.084690
6384 *290 *370 0.001410
6385 *290 *314 0.084690
6386 *290 *328 0.084690
6387 *290 *415 0.024880
6388 *290 *444 0.013790
6389 *290 *8 0.136690
6390 *290 *373 0.001410
6391 *290 *21 0.136690
6392 *290 *418 0.024880
6393 *290 *448 0.013790
6394 *290 *376 0.001410
6395 *290 *422 0.024880
6396 *290 *451 0.013790
6397 *290 *329 0.084700
6398 *290 *379 0.001410
6399 *290 *327 0.084690
6400 *290 *425 0.024880
6401 *290 *454 0.013790
6402 *290 *383 0.001410
6403 *290 *313 0.084690
6404 *290 *458 0.013790
6405 *290 *326 0.084690
6406 *290 *386 0.001410
6407 *290 *7 0.136690
6408 *290 *20 0.136690
6409 *290 *389 0.001410
6410 *290 *393 0.001410
6411 *290 *305 0.089400
6412 *290 *312 0.084690
6413 *290 *325 0.084690
6414 *290 *6 0.136690
6415 *290 *19 0.136690
6416 *290 *2 0.136690
6417 *290 *408 0.024880
6418 *290 *428 0.024880
6419 *290 *445 0.013800
6420 *290 *311 0.084690
6421 *290 *31 0.136690
6422 *290 *324 0.084690
6423 *290 *432 0.024880
6424 *290 *461 0.013790
6425 *290 *307 0.084690
6426 *290 *5 0.136690
6427 *290 *18 0.136690
6428 *290 *403 0.024880
6429 *290 *464 0.013790
6430 *290 *380 0.001410
6431 *290 *406 0.024880
6432 *290 *436 0.013790
6433 *290 *396 0.001410
6434 *290 *410 0.024880
6435 *290 *439 0.013790
6436 *290 *399 0.001410
6437 *290 *29 0.136690
6438 *290 *336 0.084690
6439 *290 *413 0.024880
6440 *290 *442 0.013790
6441 *290 *310 0.084690
6442 *290 *371 0.001410
6443 *290 *323 0.084690
6444 *290 *4 0.136690
6445 *290 *416 0.024880
6446 *290 *17 0.136690
6447 *290 *446 0.013790
6448 *290 *374 0.001410
6449 *290 *420 0.024880
6450 *290 *449 0.013790
6451 *290 *377 0.001410
6452 *290 *423 0.024880
6453 *290 *452 0.013790
6454 *290 *27 0.136690
6455 *290 *334 0.084690
6456 *290 *381 0.001410
6457 *290 *455 0.013790
6458 *290 *384 0.001410
6459 *290 *309 0.084690
6460 *290 *322 0.084690
6461 *290 *387 0.001410
6462 *290 *16 0.136690
6463 *290 *390 0.001410
6464 *290 *23 0.136690
6465 *290 *332 0.084690
6466 *290 *321 0.084690
6467 *290 *15 0.136690
6468 *290 *1 0.137820
6469 *290 *330 0.084690
6470 *290 *426 0.024930
6471 *290 *466 0.001770
6472 *290 *419 0.024880
*END

*D_NET *291 8.339270
*CONN
*P *291 I
*CAP
6473 *291 *320 0.084690
6474 *291 *472 0.024880
6475 *291 *502 0.013790
6476 *291 *316 0.084790
6477 *291 *462 0.001410
6478 *291 *14 0.136690
6479 *291 *476 0.024880
6480 *291 *505 0.013790
6481 *291 *465 0.001410
6482 *291 *479 0.024880
6483 *291 *508 0.013790
6484 *291 *437 0.001410
6485 *291 *482 0.024880
6486 *291 *512 0.013790
6487 *291 *440 0.001410
6488 *291 *3 0.136690
6489 *291 *486 0.024880
6490 *291 *515 0.013790
6491 *291 *319 0.084690
6492 *291 *443 0.001410
6493 *291 *489 0.024880
6494 *291 *13 0.136690
6495 *291 *518 0.013790
6496 *291 *447 0.001410
6497 *291 *522 0.013790
6498 *291 *450 0.001410
6499 *291 *32 0.136690
6500 *291 *308 0.084690
6501 *291 *453 0.001410
6502 *291 *457 0.001410
6503 *291 *318 0.084690
6504 *291 *11 0.136690
6505 *291 *30 0.136690
6506 *291 *306 0.084690
6507 *291 *317 0.084690
6508 *291 *494 0.025770
6509 *291 *10 0.136690
6510 *291 *24 0.136690
6511 *291 *492 0.024880
6512 *291 *28 0.136690
6513 *291 *499 0.014400
6514 *291 *335 0.084690
6515 *291 *496 0.024880
6516 *291 *525 0.013790
6517 *291 *467 0.024880
6518 *291 *528 0.013790
6519 *291 *25 0.106800
6520 *291 *434 0.001410
6521 *291 *470 0.024880
6522 *291 *500 0.013790
6523 *291 *460 0.001410
6524 *291 *315 0.084690
6525 *291 *26 0.136690
6526 *291 *333 0.084690
6527 *291 *474 0.024880
6528 *291 *9 0.136690
6529 *291 *503 0.013790
6530 *291 *22 0.136690
6531 *291 *463 0.001410
6532 *291 *477 0.024880
6533 *291 *506 0.013790
6534 *291 *435 0.001410
6535 *291 *480 0.024880
6536 *291 *509 0.013790
6537 *291 *438 0.001410
6538 *291 *483 0.024880
6539 *291 *513 0.013790
6540 *291 *12 0.136690
6541 *291 *441 0.001410
6542 *291 *331 0.084690
6543 *291 *314 0.084690
6544 *291 *487 0.024880
6545 *291 *516 0.013790
6546 *291 *328 0.084690
6547 *291 *444 0.001410
6548 *291 *8 0.136690
6549 *291 *21 0.136690
6550 *291 *490 0.024880
6551 *291 *519 0.013790
6552 *291 *448 0.001410
6553 *291 *523 0.013790
6554 *291 *451 0.001410
6555 *291 *329 0.084700
6556 *291 *327 0.084690
6557 *291 *454 0.001410
6558 *291 *313 0.084690
6559 *291 *458 0.001410
6560 *291 *326 0.084690
6561 *291 *7 0.136690
6562 *291 *20 0.136690
6563 *291 *305 0.089370
6564 *291 *312 0.084690
6565 *291 *325 0.084690
6566 *291 *473 0.024880
6567 *291 *6 0.136690
6568 *291 *19 0.136690
6569 *291 *2 0.136690
6570 *291 *493 0.024880
6571 *291 *510 0.013800
6572 *291 *497 0.024880
6573 *291 *526 0.013790
6574 *291 *468 0.024880
6575 *291 *529 0.013790
6576 *291 *445 0.001410
6577 *291 *471 0.024880
6578 *291 *311 0.084690
6579 *291 *501 0.013790
6580 *291 *31 0.136690
6581 *291 *324 0.084690
6582 *291 *461 0.001410
6583 *291 *307 0.084690
6584 *291 *5 0.136690
6585 *291 *18 0.136690
6586 *291 *475 0.024880
6587 *291 *504 0.013790
6588 *291 *464 0.001410
6589 *291 *478 0.024880
6590 *291 *507 0.013790
6591 *291 *436 0.001410
6592 *291 *481 0.024880
6593 *291 *511 0.013790
6594 *291 *439 0.001410
6595 *291 *29 0.136690
6596 *291 *485 0.024880
6597 *291 *336 0.084690
6598 *291 *514 0.013790
6599 *291 *442 0.001410
6600 *291 *310 0.084690
6601 *291 *323 0.084690
6602 *291 *488 0.024880
6603 *291 *517 0.013790
6604 *291 *4 0.136690
6605 *291 *17 0.136690
6606 *291 *446 0.001410
6607 *291 *520 0.013790
6608 *291 *449 0.001410
6609 *291 *452 0.001410
6610 *291 *27 0.136690
6611 *291 *334 0.084690
6612 *291 *455 0.001410
6613 *291 *309 0.084690
6614 *291 *322 0.084690
6615 *291 *16 0.136690
6616 *291 *23 0.136690
6617 *291 *332 0.084690
6618 *291 *491 0.024930
6619 *291 *531 0.001770
6620 *291 *321 0.084690
6621 *291 *524 0.006980
6622 *291 *484 0.024880
6623 *291 *15 0.136690
6624 *291 *1 0.137820
6625 *291 *330 0.084690
6626 *291 *495 0.024880
6627 *291 *521 0.013790
6628 *291 *498 0.024880
6629 *291 *527 0.013790
6630 *291 *469 0.024880
6631 *291 *459 0.001410
6632 *291 *530 0.013790
6633 *291 *456 0.001410
*END

*D_NET *292 8.339250
*CONN
*P *292 I
*CAP
6634 *292 *547 0.024880
6635 *292 *577 0.013790
6636 *292 *505 0.001410
6637 *292 *551 0.024880
6638 *292 *580 0.013790
6639 *292 *508 0.001410
6640 *292 *554 0.024880
6641 *292 *583 0.013790
6642 *292 *512 0.001410
6643 *292 *3 0.136690
6644 *292 *587 0.013790
6645 *292 *515 0.001410
6646 *292 *319 0.084690
6647 *292 *13 0.136690
6648 *292 *518 0.001410
6649 *292 *522 0.001410
6650 *292 *32 0.136690
6651 *292 *308 0.084690
6652 *292 *318 0.084690
6653 *292 *11 0.136690
6654 *292 *30 0.136690
6655 *292 *306 0.084690
6656 *292 *559 0.025770
6657 *292 *557 0.024880
6658 *292 *564 0.014400
6659 *292 *561 0.024880
6660 *292 *590 0.013790
6661 *292 *317 0.084690
6662 *292 *10 0.136690
6663 *292 *532 0.024880
6664 *292 *593 0.013790
6665 *292 *24 0.136690
6666 *292 *28 0.136690
6667 *292 *499 0.001410
6668 *292 *335 0.084690
6669 *292 *535 0.024880
6670 *292 *565 0.013790
6671 *292 *525 0.001410
6672 *292 *539 0.024880
6673 *292 *568 0.013790
6674 *292 *528 0.001410
6675 *292 *25 0.106800
6676 *292 *542 0.024880
6677 *292 *571 0.013790
6678 *292 *500 0.001410
6679 *292 *315 0.084690
6680 *292 *26 0.136690
6681 *292 *545 0.024880
6682 *292 *574 0.013790
6683 *292 *333 0.084690
6684 *292 *9 0.136690
6685 *292 *503 0.001410
6686 *292 *22 0.136690
6687 *292 *548 0.024880
6688 *292 *578 0.013790
6689 *292 *506 0.001410
6690 *292 *552 0.024880
6691 *292 *581 0.013790
6692 *292 *509 0.001410
6693 *292 *555 0.024880
6694 *292 *584 0.013790
6695 *292 *513 0.001410
6696 *292 *12 0.136690
6697 *292 *331 0.084690
6698 *292 *588 0.013790
6699 *292 *314 0.084690
6700 *292 *516 0.001410
6701 *292 *328 0.084690
6702 *292 *8 0.136690
6703 *292 *21 0.136690
6704 *292 *519 0.001410
6705 *292 *523 0.001410
6706 *292 *329 0.084700
6707 *292 *327 0.084690
6708 *292 *313 0.084690
6709 *292 *326 0.084690
6710 *292 *7 0.136690
6711 *292 *20 0.136690
6712 *292 *305 0.089350
6713 *292 *538 0.024880
6714 *292 *558 0.024880
6715 *292 *575 0.013800
6716 *292 *312 0.084690
6717 *292 *562 0.024880
6718 *292 *325 0.084690
6719 *292 *591 0.013790
6720 *292 *6 0.136690
6721 *292 *19 0.136690
6722 *292 *2 0.136690
6723 *292 *533 0.024880
6724 *292 *594 0.013790
6725 *292 *510 0.001410
6726 *292 *536 0.024880
6727 *292 *566 0.013790
6728 *292 *526 0.001410
6729 *292 *540 0.024880
6730 *292 *569 0.013790
6731 *292 *529 0.001410
6732 *292 *543 0.024880
6733 *292 *572 0.013790
6734 *292 *311 0.084690
6735 *292 *501 0.001410
6736 *292 *31 0.136690
6737 *292 *324 0.084690
6738 *292 *307 0.084690
6739 *292 *5 0.136690
6740 *292 *546 0.024880
6741 *292 *576 0.013790
6742 *292 *18 0.136690
6743 *292 *504 0.001410
6744 *292 *550 0.024880
6745 *292 *579 0.013790
6746 *292 *507 0.001410
6747 *292 *553 0.024880
6748 *292 *582 0.013790
6749 *292 *511 0.001410
6750 *292 *585 0.013790
6751 *292 *29 0.136690
6752 *292 *336 0.084690
6753 *292 *514 0.001410
6754 *292 *310 0.084690
6755 *292 *323 0.084690
6756 *292 *517 0.001410
6757 *292 *4 0.136690
6758 *292 *17 0.136690
6759 *292 *520 0.001410
6760 *292 *27 0.136690
6761 *292 *334 0.084690
6762 *292 *556 0.024930
6763 *292 *309 0.084690
6764 *292 *322 0.084690
6765 *292 *596 0.001770
6766 *292 *16 0.136690
6767 *292 *589 0.006980
6768 *292 *23 0.136690
6769 *292 *332 0.084690
6770 *292 *549 0.024880
6771 *292 *560 0.024880
6772 *292 *586 0.013790
6773 *292 *321 0.084690
6774 *292 *524 0.001410
6775 *292 *563 0.024880
6776 *292 *592 0.013790
6777 *292 *15 0.136690
6778 *292 *1 0.137820
6779 *292 *330 0.084690
6780 *292 *534 0.024880
6781 *292 *595 0.013790
6782 *292 *521 0.001410
6783 *292 *537 0.024880
6784 *292 *567 0.013790
6785 *292 *527 0.001410
6786 *292 *541 0.024880
6787 *292 *570 0.013790
6788 *292 *530 0.001410
6789 *292 *544 0.024880
6790 *292 *573 0.013790
6791 *292 *320 0.084690
6792 *292 *502 0.001410
6793 *292 *316 0.084790
6794 *292 *14 0.136690
*END

*D_NET *293 8.339250
*CONN
*P *293 I
*CAP
6795 *293 *652 0.013790
6796 *293 *580 0.001410
6797 *293 *583 0.001410
6798 *293 *3 0.136690
6799 *293 *587 0.001410
6800 *293 *319 0.084690
6801 *293 *13 0.136690
6802 *293 *32 0.136690
6803 *293 *308 0.084690
6804 *293 *624 0.025770
6805 *293 *318 0.084690
6806 *293 *11 0.136690
6807 *293 *622 0.024880
6808 *293 *629 0.014400
6809 *293 *30 0.136690
6810 *293 *626 0.024880
6811 *293 *655 0.013790
6812 *293 *306 0.084690
6813 *293 *597 0.024880
6814 *293 *658 0.013790
6815 *293 *564 0.001410
6816 *293 *600 0.024880
6817 *293 *630 0.013790
6818 *293 *590 0.001410
6819 *293 *317 0.084690
6820 *293 *604 0.024880
6821 *293 *633 0.013790
6822 *293 *10 0.136690
6823 *293 *593 0.001410
6824 *293 *24 0.136690
6825 *293 *28 0.136690
6826 *293 *335 0.084690
6827 *293 *607 0.024880
6828 *293 *636 0.013790
6829 *293 *565 0.001410
6830 *293 *610 0.024880
6831 *293 *639 0.013790
6832 *293 *568 0.001410
6833 *293 *25 0.106800
6834 *293 *613 0.024880
6835 *293 *643 0.013790
6836 *293 *571 0.001410
6837 *293 *617 0.024880
6838 *293 *315 0.084690
6839 *293 *646 0.013790
6840 *293 *26 0.136690
6841 *293 *574 0.001410
6842 *293 *333 0.084690
6843 *293 *9 0.136690
6844 *293 *22 0.136690
6845 *293 *620 0.024880
6846 *293 *649 0.013790
6847 *293 *578 0.001410
6848 *293 *653 0.013790
6849 *293 *581 0.001410
6850 *293 *584 0.001410
6851 *293 *12 0.136690
6852 *293 *331 0.084690
6853 *293 *588 0.001410
6854 *293 *314 0.084690
6855 *293 *328 0.084690
6856 *293 *8 0.136690
6857 *293 *21 0.136690
6858 *293 *329 0.084700
6859 *293 *327 0.084690
6860 *293 *313 0.084690
6861 *293 *326 0.084690
6862 *293 *603 0.024880
6863 *293 *7 0.136690
6864 *293 *20 0.136690
6865 *293 *623 0.024880
6866 *293 *640 0.013800
6867 *293 *627 0.024880
6868 *293 *305 0.089350
6869 *293 *656 0.013790
6870 *293 *598 0.024880
6871 *293 *659 0.013790
6872 *293 *575 0.001410
6873 *293 *601 0.024880
6874 *293 *312 0.084690
6875 *293 *631 0.013790
6876 *293 *325 0.084690
6877 *293 *591 0.001410
6878 *293 *6 0.136690
6879 *293 *605 0.024880
6880 *293 *19 0.136690
6881 *293 *634 0.013790
6882 *293 *2 0.136690
6883 *293 *594 0.001410
6884 *293 *608 0.024880
6885 *293 *637 0.013790
6886 *293 *566 0.001410
6887 *293 *611 0.024880
6888 *293 *641 0.013790
6889 *293 *569 0.001410
6890 *293 *615 0.024880
6891 *293 *644 0.013790
6892 *293 *572 0.001410
6893 *293 *311 0.084690
6894 *293 *31 0.136690
6895 *293 *324 0.084690
6896 *293 *618 0.024880
6897 *293 *307 0.084690
6898 *293 *647 0.013790
6899 *293 *5 0.136690
6900 *293 *576 0.001410
6901 *293 *18 0.136690
6902 *293 *650 0.013790
6903 *293 *579 0.001410
6904 *293 *582 0.001410
6905 *293 *585 0.001410
6906 *293 *29 0.136690
6907 *293 *336 0.084690
6908 *293 *310 0.084690
6909 *293 *323 0.084690
6910 *293 *621 0.024930
6911 *293 *4 0.136690
6912 *293 *17 0.136690
6913 *293 *661 0.001770
6914 *293 *654 0.006980
6915 *293 *27 0.136690
6916 *293 *334 0.084690
6917 *293 *309 0.084690
6918 *293 *322 0.084690
6919 *293 *614 0.024880
6920 *293 *16 0.136690
6921 *293 *589 0.001410
6922 *293 *625 0.024880
6923 *293 *651 0.013790
6924 *293 *23 0.136690
6925 *293 *332 0.084690
6926 *293 *628 0.024880
6927 *293 *657 0.013790
6928 *293 *599 0.024880
6929 *293 *660 0.013790
6930 *293 *586 0.001410
6931 *293 *321 0.084690
6932 *293 *602 0.024880
6933 *293 *632 0.013790
6934 *293 *592 0.001410
6935 *293 *15 0.136690
6936 *293 *606 0.024880
6937 *293 *1 0.137820
6938 *293 *635 0.013790
6939 *293 *330 0.084690
6940 *293 *595 0.001410
6941 *293 *609 0.024880
6942 *293 *638 0.013790
6943 *293 *567 0.001410
6944 *293 *612 0.024880
6945 *293 *642 0.013790
6946 *293 *570 0.001410
6947 *293 *616 0.024880
6948 *293 *645 0.013790
6949 *293 *573 0.001410
6950 *293 *320 0.084690
6951 *293 *316 0.084790
6952 *293 *619 0.024880
6953 *293 *14 0.136690
6954 *293 *648 0.013790
6955 *293 *577 0.001410
*END

*D_NET *294 8.339250
*CONN
*P *294 I
*CAP
6956 *294 *3 0.136690
6957 *294 *319 0.084690
6958 *294 *13 0.136690
6959 *294 *689 0.025770
6960 *294 *32 0.136690
6961 *294 *308 0.084690
6962 *294 *687 0.024880
6963 *294 *694 0.014400
6964 *294 *691 0.024880
6965 *294 *720 0.013790
6966 *294 *318 0.084690
6967 *294 *662 0.024880
6968 *294 *11 0.136690
6969 *294 *723 0.013790
6970 *294 *629 0.001410
6971 *294 *665 0.024880
6972 *294 *695 0.013790
6973 *294 *30 0.136690
6974 *294 *655 0.001410
6975 *294 *306 0.084690
6976 *294 *669 0.024880
6977 *294 *698 0.013790
6978 *294 *658 0.001410
6979 *294 *672 0.024880
6980 *294 *701 0.013790
6981 *294 *630 0.001410
6982 *294 *317 0.084690
6983 *294 *675 0.024880
6984 *294 *704 0.013790
6985 *294 *633 0.001410
6986 *294 *10 0.136690
6987 *294 *24 0.136690
6988 *294 *28 0.136690
6989 *294 *678 0.024880
6990 *294 *335 0.084690
6991 *294 *708 0.013790
6992 *294 *636 0.001410
6993 *294 *682 0.024880
6994 *294 *711 0.013790
6995 *294 *639 0.001410
6996 *294 *685 0.024880
6997 *294 *714 0.013790
6998 *294 *25 0.106800
6999 *294 *643 0.001410
7000 *294 *718 0.013790
7001 *294 *315 0.084690
7002 *294 *646 0.001410
7003 *294 *26 0.136690
7004 *294 *333 0.084690
7005 *294 *9 0.136690
7006 *294 *22 0.136690
7007 *294 *649 0.001410
7008 *294 *653 0.001410
7009 *294 *12 0.136690
7010 *294 *331 0.084690
7011 *294 *314 0.084690
7012 *294 *328 0.084690
7013 *294 *8 0.136690
7014 *294 *21 0.136690
7015 *294 *668 0.024880
7016 *294 *329 0.084700
7017 *294 *327 0.084690
7018 *294 *688 0.024880
7019 *294 *705 0.013800
7020 *294 *313 0.084690
7021 *294 *692 0.024880
7022 *294 *721 0.013790
7023 *294 *326 0.084690
7024 *294 *7 0.136690
7025 *294 *20 0.136690
7026 *294 *663 0.024880
7027 *294 *724 0.013790
7028 *294 *640 0.001410
7029 *294 *666 0.024880
7030 *294 *696 0.013790
7031 *294 *305 0.089350
7032 *294 *656 0.001410
7033 *294 *670 0.024880
7034 *294 *699 0.013790
7035 *294 *659 0.001410
7036 *294 *673 0.024880
7037 *294 *702 0.013790
7038 *294 *312 0.084690
7039 *294 *631 0.001410
7040 *294 *325 0.084690
7041 *294 *676 0.024880
7042 *294 *6 0.136690
7043 *294 *706 0.013790
7044 *294 *19 0.136690
7045 *294 *634 0.001410
7046 *294 *2 0.136690
7047 *294 *680 0.024880
7048 *294 *709 0.013790
7049 *294 *637 0.001410
7050 *294 *683 0.024880
7051 *294 *712 0.013790
7052 *294 *641 0.001410
7053 *294 *715 0.013790
7054 *294 *644 0.001410
7055 *294 *311 0.084690
7056 *294 *31 0.136690
7057 *294 *324 0.084690
7058 *294 *307 0.084690
7059 *294 *647 0.001410
7060 *294 *5 0.136690
7061 *294 *18 0.136690
7062 *294 *686 0.024930
7063 *294 *650 0.001410
7064 *294 *726 0.001770
7065 *294 *719 0.006980
7066 *294 *29 0.136690
7067 *294 *336 0.084690
7068 *294 *310 0.084690
7069 *294 *323 0.084690
7070 *294 *4 0.136690
7071 *294 *17 0.136690
7072 *294 *654 0.001410
7073 *294 *679 0.024880
7074 *294 *27 0.136690
7075 *294 *334 0.084690
7076 *294 *690 0.024880
7077 *294 *716 0.013790
7078 *294 *309 0.084690
7079 *294 *322 0.084690
7080 *294 *693 0.024880
7081 *294 *722 0.013790
7082 *294 *16 0.136690
7083 *294 *664 0.024880
7084 *294 *725 0.013790
7085 *294 *651 0.001410
7086 *294 *23 0.136690
7087 *294 *332 0.084690
7088 *294 *667 0.024880
7089 *294 *697 0.013790
7090 *294 *657 0.001410
7091 *294 *671 0.024880
7092 *294 *700 0.013790
7093 *294 *660 0.001410
7094 *294 *674 0.024880
7095 *294 *703 0.013790
7096 *294 *321 0.084690
7097 *294 *632 0.001410
7098 *294 *15 0.136690
7099 *294 *677 0.024880
7100 *294 *707 0.013790
7101 *294 *1 0.137820
7102 *294 *635 0.001410
7103 *294 *330 0.084690
7104 *294 *681 0.024880
7105 *294 *710 0.013790
7106 *294 *638 0.001410
7107 *294 *684 0.024880
7108 *294 *713 0.013790
7109 *294 *642 0.001410
7110 *294 *717 0.013790
7111 *294 *645 0.001410
7112 *294 *320 0.084690
7113 *294 *316 0.084790
7114 *294 *14 0.136690
7115 *294 *648 0.001410
7116 *294 *652 0.001410
*END

*D_NET *295 8.339890
*CONN
*P *295 I
*CAP
7117 *295 *3 0.136710
7118 *295 *754 0.025770
7119 *295 *319 0.084690
7120 *295 *13 0.136710
7121 *295 *752 0.024880
7122 *295 *759 0.014400
7123 *295 *756 0.024880
7124 *295 *785 0.013790
7125 *295 *32 0.136710
7126 *295 *727 0.024880
7127 *295 *308 0.084690
7128 *295 *788 0.013790
7129 *295 *694 0.001410
7130 *295 *730 0.024880
7131 *295 *760 0.013790
7132 *295 *720 0.001410
7133 *295 *318 0.084690
7134 *295 *734 0.024880
7135 *295 *763 0.013790
7136 *295 *11 0.136710
7137 *295 *723 0.001410
7138 *295 *737 0.024880
7139 *295 *766 0.013790
7140 *295 *695 0.001410
7141 *295 *30 0.136710
7142 *295 *306 0.084690
7143 *295 *740 0.024880
7144 *295 *769 0.013790
7145 *295 *698 0.001410
7146 *295 *743 0.024880
7147 *295 *773 0.013790
7148 *295 *701 0.001410
7149 *295 *747 0.024880
7150 *295 *317 0.084690
7151 *295 *776 0.013790
7152 *295 *704 0.001410
7153 *295 *10 0.136710
7154 *295 *750 0.024880
7155 *295 *24 0.136710
7156 *295 *779 0.013790
7157 *295 *28 0.136710
7158 *295 *335 0.084690
7159 *295 *708 0.001410
7160 *295 *783 0.013790
7161 *295 *711 0.001410
7162 *295 *714 0.001410
7163 *295 *25 0.106820
7164 *295 *718 0.001410
7165 *295 *315 0.084690
7166 *295 *26 0.136710
7167 *295 *333 0.084690
7168 *295 *9 0.136710
7169 *295 *22 0.136710
7170 *295 *12 0.136710
7171 *295 *331 0.084690
7172 *295 *314 0.084690
7173 *295 *733 0.024880
7174 *295 *328 0.084690
7175 *295 *8 0.136710
7176 *295 *21 0.136710
7177 *295 *753 0.024880
7178 *295 *770 0.013800
7179 *295 *757 0.024880
7180 *295 *786 0.013790
7181 *295 *329 0.084700
7182 *295 *327 0.084690
7183 *295 *728 0.024880
7184 *295 *789 0.013790
7185 *295 *705 0.001410
7186 *295 *731 0.024880
7187 *295 *761 0.013790
7188 *295 *313 0.084690
7189 *295 *721 0.001410
7190 *295 *326 0.084690
7191 *295 *7 0.136710
7192 *295 *735 0.024880
7193 *295 *764 0.013790
7194 *295 *20 0.136710
7195 *295 *724 0.001410
7196 *295 *738 0.024880
7197 *295 *767 0.013790
7198 *295 *696 0.001410
7199 *295 *305 0.089350
7200 *295 *741 0.024880
7201 *295 *771 0.013790
7202 *295 *699 0.001410
7203 *295 *745 0.024880
7204 *295 *774 0.013790
7205 *295 *702 0.001410
7206 *295 *312 0.084690
7207 *295 *325 0.084690
7208 *295 *748 0.024880
7209 *295 *777 0.013790
7210 *295 *6 0.136710
7211 *295 *706 0.001410
7212 *295 *19 0.136710
7213 *295 *2 0.136710
7214 *295 *780 0.013790
7215 *295 *709 0.001410
7216 *295 *751 0.024930
7217 *295 *712 0.001410
7218 *295 *791 0.001770
7219 *295 *715 0.001410
7220 *295 *311 0.084690
7221 *295 *31 0.136710
7222 *295 *784 0.006980
7223 *295 *324 0.084690
7224 *295 *307 0.084690
7225 *295 *5 0.136710
7226 *295 *18 0.136710
7227 *295 *719 0.001410
7228 *295 *29 0.136710
7229 *295 *336 0.084690
7230 *295 *310 0.084690
7231 *295 *323 0.084690
7232 *295 *4 0.136710
7233 *295 *744 0.024880
7234 *295 *17 0.136710
7235 *295 *755 0.024880
7236 *295 *781 0.013790
7237 *295 *758 0.024880
7238 *295 *787 0.013790
7239 *295 *27 0.136710
7240 *295 *334 0.084690
7241 *295 *729 0.024880
7242 *295 *790 0.013790
7243 *295 *716 0.001410
7244 *295 *309 0.084690
7245 *295 *732 0.024880
7246 *295 *322 0.084690
7247 *295 *762 0.013790
7248 *295 *722 0.001410
7249 *295 *16 0.136710
7250 *295 *736 0.024880
7251 *295 *765 0.013790
7252 *295 *725 0.001410
7253 *295 *739 0.024880
7254 *295 *23 0.136710
7255 *295 *768 0.013790
7256 *295 *332 0.084690
7257 *295 *697 0.001410
7258 *295 *742 0.024880
7259 *295 *772 0.013790
7260 *295 *700 0.001410
7261 *295 *746 0.024880
7262 *295 *775 0.013790
7263 *295 *703 0.001410
7264 *295 *321 0.084690
7265 *295 *749 0.024880
7266 *295 *778 0.013790
7267 *295 *15 0.136710
7268 *295 *707 0.001410
7269 *295 *1 0.137840
7270 *295 *330 0.084690
7271 *295 *782 0.013790
7272 *295 *710 0.001410
7273 *295 *713 0.001410
7274 *295 *717 0.001410
7275 *295 *320 0.084690
7276 *295 *316 0.084790
7277 *295 *14 0.136710
*END

*D_NET *296 8.341790
*CONN
*P *296 I
*CAP
7278 *296 *850 0.013790
7279 *296 *319 0.084670
7280 *296 *792 0.024880
7281 *296 *13 0.136790
7282 *296 *853 0.013790
7283 *296 *759 0.001410
7284 *296 *795 0.024880
7285 *296 *825 0.013790
7286 *296 *785 0.001410
7287 *296 *799 0.024880
7288 *296 *828 0.013790
7289 *296 *32 0.136790
7290 *296 *308 0.084670
7291 *296 *788 0.001410
7292 *296 *802 0.024880
7293 *296 *831 0.013790
7294 *296 *760 0.001410
7295 *296 *318 0.084670
7296 *296 *805 0.024880
7297 *296 *834 0.013790
7298 *296 *763 0.001410
7299 *296 *11 0.136790
7300 *296 *808 0.024880
7301 *296 *838 0.013790
7302 *296 *766 0.001410
7303 *296 *30 0.136790
7304 *296 *812 0.024880
7305 *296 *306 0.084670
7306 *296 *841 0.013790
7307 *296 *769 0.001410
7308 *296 *815 0.024880
7309 *296 *844 0.013790
7310 *296 *773 0.001410
7311 *296 *848 0.013790
7312 *296 *317 0.084670
7313 *296 *776 0.001410
7314 *296 *10 0.136790
7315 *296 *24 0.136790
7316 *296 *779 0.001410
7317 *296 *28 0.136790
7318 *296 *335 0.084670
7319 *296 *783 0.001410
7320 *296 *25 0.106900
7321 *296 *315 0.084670
7322 *296 *26 0.136790
7323 *296 *333 0.084670
7324 *296 *9 0.136790
7325 *296 *22 0.136790
7326 *296 *798 0.024880
7327 *296 *818 0.024880
7328 *296 *835 0.013800
7329 *296 *12 0.136790
7330 *296 *331 0.084670
7331 *296 *822 0.024880
7332 *296 *314 0.084670
7333 *296 *851 0.013790
7334 *296 *328 0.084670
7335 *296 *8 0.136790
7336 *296 *21 0.136790
7337 *296 *793 0.024880
7338 *296 *854 0.013790
7339 *296 *770 0.001410
7340 *296 *796 0.024880
7341 *296 *826 0.013790
7342 *296 *786 0.001410
7343 *296 *329 0.084670
7344 *296 *800 0.024880
7345 *296 *829 0.013790
7346 *296 *327 0.084670
7347 *296 *789 0.001410
7348 *296 *803 0.024880
7349 *296 *832 0.013790
7350 *296 *761 0.001410
7351 *296 *313 0.084670
7352 *296 *326 0.084670
7353 *296 *806 0.024880
7354 *296 *836 0.013790
7355 *296 *7 0.136790
7356 *296 *764 0.001410
7357 *296 *20 0.136790
7358 *296 *810 0.024880
7359 *296 *839 0.013790
7360 *296 *767 0.001410
7361 *296 *305 0.089320
7362 *296 *813 0.024880
7363 *296 *842 0.013790
7364 *296 *771 0.001410
7365 *296 *816 0.024930
7366 *296 *845 0.013790
7367 *296 *774 0.001410
7368 *296 *312 0.084670
7369 *296 *856 0.001770
7370 *296 *325 0.084670
7371 *296 *777 0.001410
7372 *296 *6 0.136790
7373 *296 *19 0.136790
7374 *296 *2 0.136790
7375 *296 *849 0.006980
7376 *296 *780 0.001410
7377 *296 *311 0.084670
7378 *296 *31 0.136790
7379 *296 *784 0.001410
7380 *296 *324 0.084670
7381 *296 *307 0.084670
7382 *296 *5 0.136790
7383 *296 *18 0.136790
7384 *296 *809 0.024880
7385 *296 *820 0.024880
7386 *296 *29 0.136790
7387 *296 *846 0.013790
7388 *296 *336 0.084670
7389 *296 *310 0.084670
7390 *296 *323 0.084670
7391 *296 *823 0.024880
7392 *296 *852 0.013790
7393 *296 *4 0.136790
7394 *296 *17 0.136790
7395 *296 *794 0.024880
7396 *296 *855 0.013790
7397 *296 *781 0.001410
7398 *296 *797 0.024880
7399 *296 *827 0.013790
7400 *296 *787 0.001410
7401 *296 *27 0.136790
7402 *296 *334 0.084670
7403 *296 *801 0.024880
7404 *296 *830 0.013790
7405 *296 *790 0.001410
7406 *296 *804 0.024880
7407 *296 *309 0.084670
7408 *296 *833 0.013790
7409 *296 *322 0.084670
7410 *296 *762 0.001410
7411 *296 *807 0.024880
7412 *296 *16 0.136790
7413 *296 *837 0.013790
7414 *296 *765 0.001410
7415 *296 *811 0.024880
7416 *296 *840 0.013790
7417 *296 *23 0.136790
7418 *296 *768 0.001410
7419 *296 *332 0.084670
7420 *296 *814 0.024880
7421 *296 *843 0.013790
7422 *296 *772 0.001410
7423 *296 *847 0.013790
7424 *296 *775 0.001410
7425 *296 *321 0.084670
7426 *296 *778 0.001410
7427 *296 *15 0.136790
7428 *296 *1 0.137920
7429 *296 *330 0.084670
7430 *296 *782 0.001410
7431 *296 *320 0.084670
7432 *296 *316 0.084770
7433 *296 *14 0.136790
7434 *296 *819 0.025770
7435 *296 *817 0.024880
7436 *296 *824 0.014400
7437 *296 *3 0.136790
7438 *296 *821 0.024880
*END

*D_NET *305 0.667810
*CONN
*P *305 I
*CAP
7439 *305 *1 0.033140
7440 *305 *316 0.121100
7441 *305 *819 0.036840
7442 *305 *824 0.027190
7443 *305 *754 0.036840
7444 *305 *759 0.027380
7445 *305 *689 0.036840
7446 *305 *694 0.027380
7447 *305 *624 0.036840
7448 *305 *629 0.027380
7449 *305 *559 0.036840
7450 *305 *564 0.027380
7451 *305 *494 0.036840
7452 *305 *499 0.027380
7453 *305 *429 0.036840
7454 *305 *434 0.027380
7455 *305 *364 0.036840
7456 *305 *369 0.027380
*END

*D_NET *316 1.331030
*CONN
*P *316 I
*CAP
7457 *316 *369 0.003820
7458 *316 *798 0.036840
7459 *316 *835 0.027190
7460 *316 *12 0.033140
7461 *316 *733 0.036840
7462 *316 *770 0.027380
7463 *316 *668 0.036840
7464 *316 *327 0.121100
7465 *316 *705 0.027380
7466 *316 *603 0.036840
7467 *316 *640 0.027380
7468 *316 *538 0.036840
7469 *316 *575 0.027380
7470 *316 *473 0.036840
7471 *316 *510 0.027380
7472 *316 *408 0.036840
7473 *316 *445 0.027380
7474 *316 *343 0.036840
7475 *316 *380 0.027380
7476 *316 *1 0.598340
7477 *316 *819 0.004290
7478 *316 *824 0.003820
7479 *316 *754 0.004290
7480 *316 *759 0.003820
7481 *316 *689 0.004290
7482 *316 *694 0.003820
7483 *316 *624 0.004290
7484 *316 *629 0.003820
7485 *316 *559 0.004290
7486 *316 *564 0.003820
7487 *316 *494 0.004290
7488 *316 *499 0.003820
7489 *316 *429 0.004290
7490 *316 *434 0.003820
7491 *316 *364 0.004290
*END

*D_NET *327 1.331030
*CONN
*P *327 I
*CAP
7492 *327 *549 0.036840
7493 *327 *586 0.027380
7494 *327 *484 0.036840
7495 *327 *330 0.121100
7496 *327 *521 0.027380
7497 *327 *419 0.036840
7498 *327 *456 0.027380
7499 *327 *354 0.036840
7500 *327 *391 0.027380
7501 *327 *798 0.004290
7502 *327 *835 0.003820
7503 *327 *12 0.598340
7504 *327 *733 0.004290
7505 *327 *770 0.003820
7506 *327 *668 0.004290
7507 *327 *705 0.003820
7508 *327 *603 0.004290
7509 *327 *640 0.003820
7510 *327 *538 0.004290
7511 *327 *575 0.003820
7512 *327 *473 0.004290
7513 *327 *510 0.003820
7514 *327 *408 0.004290
7515 *327 *445 0.003820
7516 *327 *343 0.004290
7517 *327 *380 0.003820
7518 *327 *809 0.036840
7519 *327 *846 0.027190
7520 *327 *744 0.036840
7521 *327 *781 0.027380
7522 *327 *679 0.036840
7523 *327 *716 0.027380
7524 *327 *614 0.036840
7525 *327 *651 0.027380
7526 *327 *23 0.033140
*END

*D_NET *330 1.331030
*CONN
*P *330 I
*CAP
7527 *330 *809 0.004290
7528 *330 *846 0.003820
7529 *330 *744 0.004290
7530 *330 *781 0.003820
7531 *330 *679 0.004290
7532 *330 *716 0.003820
7533 *330 *614 0.004290
7534 *330 *651 0.003820
7535 *330 *23 0.598340
7536 *330 *549 0.004290
7537 *330 *586 0.003820
7538 *330 *484 0.004290
7539 *330 *521 0.003820
7540 *330 *419 0.004290
7541 *330 *456 0.003820
7542 *330 *354 0.004290
7543 *330 *391 0.003820
7544 *330 *817 0.036840
7545 *330 *850 0.027190
7546 *330 *752 0.036840
7547 *330 *785 0.027380
7548 *330 *687 0.036840
7549 *330 *720 0.027380
7550 *330 *622 0.036840
7551 *330 *655 0.027380
7552 *330 *557 0.036840
7553 *330 *590 0.027380
7554 *330 *492 0.036840
7555 *330 *525 0.027380
7556 *330 *427 0.036840
7557 *330 *460 0.027380
7558 *330 *26 0.033140
7559 *330 *362 0.036840
7560 *330 *395 0.027380
7561 *330 *331 0.121100
*END

*D_NET *331 1.331030
*CONN
*P *331 I
*CAP
7562 *331 *817 0.004290
7563 *331 *850 0.003820
7564 *331 *752 0.004290
7565 *331 *785 0.003820
7566 *331 *687 0.004290
7567 *331 *720 0.003820
7568 *331 *622 0.004290
7569 *331 *655 0.003820
7570 *331 *557 0.004290
7571 *331 *590 0.003820
7572 *331 *492 0.004290
7573 *331 *525 0.003820
7574 *331 *427 0.004290
7575 *331 *460 0.003820
7576 *331 *26 0.598340
7577 *331 *362 0.004290
7578 *331 *395 0.003820
7579 *331 *818 0.036840
7580 *331 *851 0.027190
7581 *331 *753 0.036840
7582 *331 *786 0.027380
7583 *331 *688 0.036840
7584 *331 *721 0.027380
7585 *331 *623 0.036840
7586 *331 *656 0.027380
7587 *331 *558 0.036840
7588 *331 *591 0.027380
7589 *331 *493 0.036840
7590 *331 *526 0.027380
7591 *331 *428 0.036840
7592 *331 *461 0.027380
7593 *331 *363 0.036840
7594 *331 *396 0.027380
7595 *331 *27 0.033140
7596 *331 *332 0.121100
*END

*D_NET *332 1.331030
*CONN
*P *332 I
*CAP
7597 *332 *721 0.003820
7598 *332 *623 0.004290
7599 *332 *656 0.003820
7600 *332 *558 0.004290
7601 *332 *591 0.003820
7602 *332 *493 0.004290
7603 *332 *526 0.003820
7604 *332 *428 0.004290
7605 *332 *461 0.003820
7606 *332 *363 0.004290
7607 *332 *396 0.003820
7608 *332 *820 0.036840
7609 *332 *852 0.027190
7610 *332 *755 0.036840
7611 *332 *787 0.027380
7612 *332 *27 0.598340
7613 *332 *690 0.036840
7614 *332 *722 0.027380
7615 *332 *625 0.036840
7616 *332 *657 0.027380
7617 *332 *560 0.036840
7618 *332 *592 0.027380
7619 *332 *495 0.036840
7620 *332 *527 0.027380
7621 *332 *430 0.036840
7622 *332 *462 0.027380
7623 *332 *365 0.036840
7624 *332 *397 0.027380
7625 *332 *28 0.033140
7626 *332 *333 0.121100
7627 *332 *818 0.004290
7628 *332 *851 0.003820
7629 *332 *753 0.004290
7630 *332 *786 0.003820
7631 *332 *688 0.004290
*END

*D_NET *333 1.331030
*CONN
*P *333 I
*CAP
7632 *333 *365 0.004290
7633 *333 *397 0.003820
7634 *333 *821 0.036840
7635 *333 *853 0.027190
7636 *333 *756 0.036840
7637 *333 *788 0.027380
7638 *333 *691 0.036840
7639 *333 *723 0.027380
7640 *333 *626 0.036840
7641 *333 *658 0.027380
7642 *333 *561 0.036840
7643 *333 *593 0.027380
7644 *333 *28 0.598340
7645 *333 *496 0.036840
7646 *333 *528 0.027380
7647 *333 *431 0.036840
7648 *333 *463 0.027380
7649 *333 *366 0.036840
7650 *333 *398 0.027380
7651 *333 *820 0.004290
7652 *333 *29 0.033140
7653 *333 *852 0.003820
7654 *333 *755 0.004290
7655 *333 *787 0.003820
7656 *333 *334 0.121100
7657 *333 *690 0.004290
7658 *333 *722 0.003820
7659 *333 *625 0.004290
7660 *333 *657 0.003820
7661 *333 *560 0.004290
7662 *333 *592 0.003820
7663 *333 *495 0.004290
7664 *333 *527 0.003820
7665 *333 *430 0.004290
7666 *333 *462 0.003820
*END

*D_NET *334 1.331030
*CONN
*P *334 I
*CAP
7667 *334 *659 0.027380
7668 *334 *562 0.036840
7669 *334 *594 0.027380
7670 *334 *497 0.036840
7671 *334 *529 0.027380
7672 *334 *432 0.036840
7673 *334 *464 0.027380
7674 *334 *367 0.036840
7675 *334 *399 0.027380
7676 *334 *29 0.598340
7677 *334 *821 0.004290
7678 *334 *853 0.003820
7679 *334 *756 0.004290
7680 *334 *788 0.003820
7681 *334 *691 0.004290
7682 *334 *723 0.003820
7683 *334 *30 0.033140
7684 *334 *626 0.004290
7685 *334 *658 0.003820
7686 *334 *561 0.004290
7687 *334 *593 0.003820
7688 *334 *335 0.121100
7689 *334 *496 0.004290
7690 *334 *528 0.003820
7691 *334 *431 0.004290
7692 *334 *463 0.003820
7693 *334 *366 0.004290
7694 *334 *398 0.003820
7695 *334 *822 0.036840
7696 *334 *854 0.027190
7697 *334 *757 0.036840
7698 *334 *789 0.027380
7699 *334 *692 0.036840
7700 *334 *724 0.027380
7701 *334 *627 0.036840
*END

*D_NET *335 1.331030
*CONN
*P *335 I
*CAP
7702 *335 *30 0.598340
7703 *335 *822 0.004290
7704 *335 *854 0.003820
7705 *335 *757 0.004290
7706 *335 *789 0.003820
7707 *335 *692 0.004290
7708 *335 *724 0.003820
7709 *335 *627 0.004290
7710 *335 *659 0.003820
7711 *335 *562 0.004290
7712 *335 *594 0.003820
7713 *335 *497 0.004290
7714 *335 *529 0.003820
7715 *335 *31 0.033140
7716 *335 *432 0.004290
7717 *335 *464 0.003820
7718 *335 *367 0.004290
7719 *335 *399 0.003820
7720 *335 *336 0.121100
7721 *335 *823 0.036840
7722 *335 *855 0.027190
7723 *335 *758 0.036840
7724 *335 *790 0.027380
7725 *335 *693 0.036840
7726 *335 *725 0.027380
7727 *335 *628 0.036840
7728 *335 *660 0.027380
7729 *335 *563 0.036840
7730 *335 *595 0.027380
7731 *335 *498 0.036840
7732 *335 *530 0.027380
7733 *335 *433 0.036840
7734 *335 *465 0.027380
7735 *335 *368 0.036840
7736 *335 *400 0.027380
*END

*D_NET *336 1.331030
*CONN
*P *336 I
*CAP
7737 *336 *31 0.598340
7738 *336 *823 0.004290
7739 *336 *855 0.003820
7740 *336 *758 0.004290
7741 *336 *790 0.003820
7742 *336 *693 0.004290
7743 *336 *725 0.003820
7744 *336 *628 0.004290
7745 *336 *660 0.003820
7746 *336 *563 0.004290
7747 *336 *595 0.003820
7748 *336 *498 0.004290
7749 *336 *530 0.003820
7750 *336 *433 0.004290
7751 *336 *465 0.003820
7752 *336 *368 0.004290
7753 *336 *400 0.003820
7754 *336 *792 0.036840
7755 *336 *825 0.027190
7756 *336 *32 0.033140
7757 *336 *727 0.036840
7758 *336 *760 0.027380
7759 *336 *662 0.036840
7760 *336 *695 0.027380
7761 *336 *306 0.121100
7762 *336 *597 0.036840
7763 *336 *630 0.027380
7764 *336 *532 0.036840
7765 *336 *565 0.027380
7766 *336 *467 0.036840
7767 *336 *500 0.027380
7768 *336 *402 0.036840
7769 *336 *435 0.027380
7770 *336 *337 0.036840
7771 *336 *370 0.027380
*END

*D_NET *306 1.331030
*CONN
*P *306 I
*CAP
7772 *306 *760 0.003820
7773 *306 *662 0.004290
7774 *306 *695 0.003820
7775 *306 *597 0.004290
7776 *306 *630 0.003820
7777 *306 *532 0.004290
7778 *306 *565 0.003820
7779 *306 *467 0.004290
7780 *306 *500 0.003820
7781 *306 *402 0.004290
7782 *306 *435 0.003820
7783 *306 *337 0.004290
7784 *306 *370 0.003820
7785 *306 *793 0.036840
7786 *306 *826 0.027190
7787 *306 *728 0.036840
7788 *306 *761 0.027380
7789 *306 *663 0.036840
7790 *306 *696 0.027380
7791 *306 *598 0.036840
7792 *306 *631 0.027380
7793 *306 *2 0.033140
7794 *306 *533 0.036840
7795 *306 *566 0.027380
7796 *306 *468 0.036840
7797 *306 *501 0.027380
7798 *306 *307 0.121100
7799 *306 *403 0.036840
7800 *306 *436 0.027380
7801 *306 *338 0.036840
7802 *306 *371 0.027380
7803 *306 *792 0.004290
7804 *306 *825 0.003820
7805 *306 *32 0.598340
7806 *306 *727 0.004290
*END

*D_NET *307 1.331030
*CONN
*P *307 I
*CAP
7807 *307 *436 0.003820
7808 *307 *338 0.004290
7809 *307 *371 0.003820
7810 *307 *794 0.036840
7811 *307 *827 0.027190
7812 *307 *729 0.036840
7813 *307 *762 0.027380
7814 *307 *664 0.036840
7815 *307 *697 0.027380
7816 *307 *599 0.036840
7817 *307 *632 0.027380
7818 *307 *534 0.036840
7819 *307 *567 0.027380
7820 *307 *469 0.036840
7821 *307 *502 0.027380
7822 *307 *404 0.036840
7823 *307 *437 0.027380
7824 *307 *3 0.033140
7825 *307 *339 0.036840
7826 *307 *372 0.027380
7827 *307 *308 0.121100
7828 *307 *793 0.004290
7829 *307 *826 0.003820
7830 *307 *728 0.004290
7831 *307 *761 0.003820
7832 *307 *663 0.004290
7833 *307 *696 0.003820
7834 *307 *598 0.004290
7835 *307 *631 0.003820
7836 *307 *2 0.598340
7837 *307 *533 0.004290
7838 *307 *566 0.003820
7839 *307 *468 0.004290
7840 *307 *501 0.003820
7841 *307 *403 0.004290
*END

*D_NET *308 1.331030
*CONN
*P *308 I
*CAP
7842 *308 *600 0.036840
7843 *308 *633 0.027380
7844 *308 *535 0.036840
7845 *308 *568 0.027380
7846 *308 *470 0.036840
7847 *308 *503 0.027380
7848 *308 *405 0.036840
7849 *308 *438 0.027380
7850 *308 *340 0.036840
7851 *308 *373 0.027380
7852 *308 *4 0.033140
7853 *308 *794 0.004290
7854 *308 *827 0.003820
7855 *308 *729 0.004290
7856 *308 *309 0.121100
7857 *308 *762 0.003820
7858 *308 *664 0.004290
7859 *308 *697 0.003820
7860 *308 *599 0.004290
7861 *308 *632 0.003820
7862 *308 *534 0.004290
7863 *308 *567 0.003820
7864 *308 *469 0.004290
7865 *308 *502 0.003820
7866 *308 *404 0.004290
7867 *308 *437 0.003820
7868 *308 *3 0.598340
7869 *308 *339 0.004290
7870 *308 *372 0.003820
7871 *308 *795 0.036840
7872 *308 *828 0.027190
7873 *308 *730 0.036840
7874 *308 *763 0.027380
7875 *308 *665 0.036840
7876 *308 *698 0.027380
*END

*D_NET *309 1.331030
*CONN
*P *309 I
*CAP
7877 *309 *666 0.036840
7878 *309 *699 0.027380
7879 *309 *601 0.036840
7880 *309 *634 0.027380
7881 *309 *536 0.036840
7882 *309 *569 0.027380
7883 *309 *471 0.036840
7884 *309 *5 0.033140
7885 *309 *504 0.027380
7886 *309 *406 0.036840
7887 *309 *439 0.027380
7888 *309 *310 0.121100
7889 *309 *341 0.036840
7890 *309 *4 0.598340
7891 *309 *374 0.027380
7892 *309 *795 0.004290
7893 *309 *828 0.003820
7894 *309 *730 0.004290
7895 *309 *763 0.003820
7896 *309 *665 0.004290
7897 *309 *698 0.003820
7898 *309 *600 0.004290
7899 *309 *633 0.003820
7900 *309 *535 0.004290
7901 *309 *568 0.003820
7902 *309 *470 0.004290
7903 *309 *503 0.003820
7904 *309 *405 0.004290
7905 *309 *438 0.003820
7906 *309 *340 0.004290
7907 *309 *373 0.003820
7908 *309 *796 0.036840
7909 *309 *829 0.027190
7910 *309 *731 0.036840
7911 *309 *764 0.027380
*END

*D_NET *310 1.331030
*CONN
*P *310 I
*CAP
7912 *310 *536 0.004290
7913 *310 *569 0.003820
7914 *310 *471 0.004290
7915 *310 *311 0.121100
7916 *310 *5 0.598340
7917 *310 *504 0.003820
7918 *310 *406 0.004290
7919 *310 *439 0.003820
7920 *310 *341 0.004290
7921 *310 *374 0.003820
7922 *310 *797 0.036840
7923 *310 *830 0.027190
7924 *310 *732 0.036840
7925 *310 *765 0.027380
7926 *310 *667 0.036840
7927 *310 *700 0.027380
7928 *310 *602 0.036840
7929 *310 *635 0.027380
7930 *310 *537 0.036840
7931 *310 *570 0.027380
7932 *310 *472 0.036840
7933 *310 *505 0.027380
7934 *310 *407 0.036840
7935 *310 *440 0.027380
7936 *310 *342 0.036840
7937 *310 *375 0.027380
7938 *310 *796 0.004290
7939 *310 *829 0.003820
7940 *310 *731 0.004290
7941 *310 *764 0.003820
7942 *310 *666 0.004290
7943 *310 *699 0.003820
7944 *310 *601 0.004290
7945 *310 *6 0.033140
7946 *310 *634 0.003820
*END

*D_NET *311 1.331030
*CONN
*P *311 I
*CAP
7947 *311 *797 0.004290
7948 *311 *830 0.003820
7949 *311 *732 0.004290
7950 *311 *765 0.003820
7951 *311 *667 0.004290
7952 *311 *700 0.003820
7953 *311 *602 0.004290
7954 *311 *635 0.003820
7955 *311 *537 0.004290
7956 *311 *570 0.003820
7957 *311 *472 0.004290
7958 *311 *505 0.003820
7959 *311 *407 0.004290
7960 *311 *440 0.003820
7961 *311 *342 0.004290
7962 *311 *375 0.003820
7963 *311 *799 0.036840
7964 *311 *831 0.027190
7965 *311 *734 0.036840
7966 *311 *766 0.027380
7967 *311 *669 0.036840
7968 *311 *701 0.027380
7969 *311 *604 0.036840
7970 *311 *636 0.027380
7971 *311 *539 0.036840
7972 *311 *571 0.027380
7973 *311 *474 0.036840
7974 *311 *506 0.027380
7975 *311 *409 0.036840
7976 *311 *441 0.027380
7977 *311 *344 0.036840
7978 *311 *376 0.027380
7979 *311 *7 0.033140
7980 *311 *312 0.121100
7981 *311 *6 0.598340
*END

*D_NET *312 1.331030
*CONN
*P *312 I
*CAP
7982 *312 *377 0.027380
7983 *312 *799 0.004290
7984 *312 *831 0.003820
7985 *312 *734 0.004290
7986 *312 *766 0.003820
7987 *312 *669 0.004290
7988 *312 *701 0.003820
7989 *312 *604 0.004290
7990 *312 *636 0.003820
7991 *312 *539 0.004290
7992 *312 *571 0.003820
7993 *312 *474 0.004290
7994 *312 *506 0.003820
7995 *312 *409 0.004290
7996 *312 *441 0.003820
7997 *312 *8 0.033140
7998 *312 *344 0.004290
7999 *312 *376 0.003820
8000 *312 *800 0.036840
8001 *312 *832 0.027190
8002 *312 *313 0.121100
8003 *312 *7 0.598340
8004 *312 *735 0.036840
8005 *312 *767 0.027380
8006 *312 *670 0.036840
8007 *312 *702 0.027380
8008 *312 *605 0.036840
8009 *312 *637 0.027380
8010 *312 *540 0.036840
8011 *312 *572 0.027380
8012 *312 *475 0.036840
8013 *312 *507 0.027380
8014 *312 *410 0.036840
8015 *312 *442 0.027380
8016 *312 *345 0.036840
*END

*D_NET *313 1.331030
*CONN
*P *313 I
*CAP
8017 *313 *768 0.027380
8018 *313 *671 0.036840
8019 *313 *703 0.027380
8020 *313 *606 0.036840
8021 *313 *638 0.027380
8022 *313 *541 0.036840
8023 *313 *573 0.027380
8024 *313 *476 0.036840
8025 *313 *508 0.027380
8026 *313 *411 0.036840
8027 *313 *443 0.027380
8028 *313 *346 0.036840
8029 *313 *378 0.027380
8030 *313 *9 0.033140
8031 *313 *314 0.121100
8032 *313 *8 0.598340
8033 *313 *800 0.004290
8034 *313 *832 0.003820
8035 *313 *735 0.004290
8036 *313 *767 0.003820
8037 *313 *670 0.004290
8038 *313 *702 0.003820
8039 *313 *605 0.004290
8040 *313 *637 0.003820
8041 *313 *540 0.004290
8042 *313 *572 0.003820
8043 *313 *475 0.004290
8044 *313 *507 0.003820
8045 *313 *410 0.004290
8046 *313 *442 0.003820
8047 *313 *345 0.004290
8048 *313 *377 0.003820
8049 *313 *801 0.036840
8050 *313 *833 0.027190
8051 *313 *736 0.036840
*END

*D_NET *314 1.331030
*CONN
*P *314 I
*CAP
8052 *314 *638 0.003820
8053 *314 *541 0.004290
8054 *314 *573 0.003820
8055 *314 *476 0.004290
8056 *314 *508 0.003820
8057 *314 *411 0.004290
8058 *314 *443 0.003820
8059 *314 *346 0.004290
8060 *314 *378 0.003820
8061 *314 *802 0.036840
8062 *314 *834 0.027190
8063 *314 *737 0.036840
8064 *314 *769 0.027380
8065 *314 *672 0.036840
8066 *314 *704 0.027380
8067 *314 *10 0.033140
8068 *314 *607 0.036840
8069 *314 *639 0.027380
8070 *314 *542 0.036840
8071 *314 *315 0.121100
8072 *314 *574 0.027380
8073 *314 *9 0.598340
8074 *314 *477 0.036840
8075 *314 *509 0.027380
8076 *314 *412 0.036840
8077 *314 *444 0.027380
8078 *314 *347 0.036840
8079 *314 *379 0.027380
8080 *314 *801 0.004290
8081 *314 *833 0.003820
8082 *314 *736 0.004290
8083 *314 *768 0.003820
8084 *314 *671 0.004290
8085 *314 *703 0.003820
8086 *314 *606 0.004290
*END

*D_NET *315 1.331030
*CONN
*P *315 I
*CAP
8087 *315 *802 0.004290
8088 *315 *834 0.003820
8089 *315 *11 0.033140
8090 *315 *737 0.004290
8091 *315 *769 0.003820
8092 *315 *672 0.004290
8093 *315 *317 0.121100
8094 *315 *704 0.003820
8095 *315 *10 0.598340
8096 *315 *607 0.004290
8097 *315 *639 0.003820
8098 *315 *542 0.004290
8099 *315 *574 0.003820
8100 *315 *477 0.004290
8101 *315 *509 0.003820
8102 *315 *412 0.004290
8103 *315 *444 0.003820
8104 *315 *347 0.004290
8105 *315 *379 0.003820
8106 *315 *803 0.036840
8107 *315 *836 0.027190
8108 *315 *738 0.036840
8109 *315 *771 0.027380
8110 *315 *673 0.036840
8111 *315 *706 0.027380
8112 *315 *608 0.036840
8113 *315 *641 0.027380
8114 *315 *543 0.036840
8115 *315 *576 0.027380
8116 *315 *478 0.036840
8117 *315 *511 0.027380
8118 *315 *413 0.036840
8119 *315 *446 0.027380
8120 *315 *348 0.036840
8121 *315 *381 0.027380
*END

*D_NET *317 1.331030
*CONN
*P *317 I
*CAP
8122 *317 *349 0.036840
8123 *317 *382 0.027380
8124 *317 *318 0.121100
8125 *317 *11 0.598340
8126 *317 *803 0.004290
8127 *317 *836 0.003820
8128 *317 *738 0.004290
8129 *317 *771 0.003820
8130 *317 *673 0.004290
8131 *317 *706 0.003820
8132 *317 *608 0.004290
8133 *317 *641 0.003820
8134 *317 *543 0.004290
8135 *317 *576 0.003820
8136 *317 *478 0.004290
8137 *317 *511 0.003820
8138 *317 *413 0.004290
8139 *317 *446 0.003820
8140 *317 *348 0.004290
8141 *317 *381 0.003820
8142 *317 *804 0.036840
8143 *317 *837 0.027190
8144 *317 *739 0.036840
8145 *317 *772 0.027380
8146 *317 *674 0.036840
8147 *317 *707 0.027380
8148 *317 *609 0.036840
8149 *317 *642 0.027380
8150 *317 *544 0.036840
8151 *317 *577 0.027380
8152 *317 *479 0.036840
8153 *317 *512 0.027380
8154 *317 *414 0.036840
8155 *317 *13 0.033140
8156 *317 *447 0.027380
*END

*D_NET *318 1.331030
*CONN
*P *318 I
*CAP
8157 *318 *740 0.036840
8158 *318 *773 0.027380
8159 *318 *675 0.036840
8160 *318 *708 0.027380
8161 *318 *610 0.036840
8162 *318 *643 0.027380
8163 *318 *545 0.036840
8164 *318 *578 0.027380
8165 *318 *480 0.036840
8166 *318 *513 0.027380
8167 *318 *415 0.036840
8168 *318 *448 0.027380
8169 *318 *350 0.036840
8170 *318 *383 0.027380
8171 *318 *804 0.004290
8172 *318 *837 0.003820
8173 *318 *739 0.004290
8174 *318 *772 0.003820
8175 *318 *674 0.004290
8176 *318 *707 0.003820
8177 *318 *609 0.004290
8178 *318 *642 0.003820
8179 *318 *544 0.004290
8180 *318 *14 0.033140
8181 *318 *577 0.003820
8182 *318 *479 0.004290
8183 *318 *512 0.003820
8184 *318 *414 0.004290
8185 *318 *319 0.121100
8186 *318 *13 0.598340
8187 *318 *447 0.003820
8188 *318 *349 0.004290
8189 *318 *382 0.003820
8190 *318 *805 0.036840
8191 *318 *838 0.027190
*END

*D_NET *319 1.331030
*CONN
*P *319 I
*CAP
8192 *319 *610 0.004290
8193 *319 *643 0.003820
8194 *319 *545 0.004290
8195 *319 *578 0.003820
8196 *319 *480 0.004290
8197 *319 *513 0.003820
8198 *319 *415 0.004290
8199 *319 *448 0.003820
8200 *319 *350 0.004290
8201 *319 *383 0.003820
8202 *319 *806 0.036840
8203 *319 *839 0.027190
8204 *319 *741 0.036840
8205 *319 *774 0.027380
8206 *319 *676 0.036840
8207 *319 *709 0.027380
8208 *319 *611 0.036840
8209 *319 *644 0.027380
8210 *319 *546 0.036840
8211 *319 *579 0.027380
8212 *319 *481 0.036840
8213 *319 *514 0.027380
8214 *319 *416 0.036840
8215 *319 *449 0.027380
8216 *319 *351 0.036840
8217 *319 *384 0.027380
8218 *319 *15 0.033140
8219 *319 *320 0.121100
8220 *319 *14 0.598340
8221 *319 *805 0.004290
8222 *319 *838 0.003820
8223 *319 *740 0.004290
8224 *319 *773 0.003820
8225 *319 *675 0.004290
8226 *319 *708 0.003820
*END

*D_NET *320 1.331030
*CONN
*P *320 I
*CAP
8227 *320 *806 0.004290
8228 *320 *839 0.003820
8229 *320 *741 0.004290
8230 *320 *774 0.003820
8231 *320 *676 0.004290
8232 *320 *709 0.003820
8233 *320 *611 0.004290
8234 *320 *644 0.003820
8235 *320 *546 0.004290
8236 *320 *579 0.003820
8237 *320 *481 0.004290
8238 *320 *514 0.003820
8239 *320 *416 0.004290
8240 *320 *449 0.003820
8241 *320 *351 0.004290
8242 *320 *384 0.003820
8243 *320 *807 0.036840
8244 *320 *16 0.033140
8245 *320 *840 0.027190
8246 *320 *742 0.036840
8247 *320 *775 0.027380
8248 *320 *321 0.121100
8249 *320 *15 0.598340
8250 *320 *677 0.036840
8251 *320 *710 0.027380
8252 *320 *612 0.036840
8253 *320 *645 0.027380
8254 *320 *547 0.036840
8255 *320 *580 0.027380
8256 *320 *482 0.036840
8257 *320 *515 0.027380
8258 *320 *417 0.036840
8259 *320 *450 0.027380
8260 *320 *352 0.036840
8261 *320 *385 0.027380
*END

*D_NET *321 1.331030
*CONN
*P *321 I
*CAP
8262 *321 *451 0.027380
8263 *321 *353 0.036840
8264 *321 *386 0.027380
8265 *321 *17 0.033140
8266 *321 *322 0.121100
8267 *321 *807 0.004290
8268 *321 *16 0.598340
8269 *321 *840 0.003820
8270 *321 *742 0.004290
8271 *321 *775 0.003820
8272 *321 *677 0.004290
8273 *321 *710 0.003820
8274 *321 *612 0.004290
8275 *321 *645 0.003820
8276 *321 *547 0.004290
8277 *321 *580 0.003820
8278 *321 *482 0.004290
8279 *321 *515 0.003820
8280 *321 *417 0.004290
8281 *321 *450 0.003820
8282 *321 *352 0.004290
8283 *321 *385 0.003820
8284 *321 *808 0.036840
8285 *321 *841 0.027190
8286 *321 *743 0.036840
8287 *321 *776 0.027380
8288 *321 *678 0.036840
8289 *321 *711 0.027380
8290 *321 *613 0.036840
8291 *321 *646 0.027380
8292 *321 *548 0.036840
8293 *321 *581 0.027380
8294 *321 *483 0.036840
8295 *321 *516 0.027380
8296 *321 *418 0.036840
*END

*D_NET *322 1.331030
*CONN
*P *322 I
*CAP
8297 *322 *810 0.036840
8298 *322 *842 0.027190
8299 *322 *745 0.036840
8300 *322 *777 0.027380
8301 *322 *680 0.036840
8302 *322 *712 0.027380
8303 *322 *615 0.036840
8304 *322 *647 0.027380
8305 *322 *18 0.033140
8306 *322 *550 0.036840
8307 *322 *582 0.027380
8308 *322 *485 0.036840
8309 *322 *323 0.121100
8310 *322 *517 0.027380
8311 *322 *17 0.598340
8312 *322 *420 0.036840
8313 *322 *452 0.027380
8314 *322 *355 0.036840
8315 *322 *387 0.027380
8316 *322 *808 0.004290
8317 *322 *841 0.003820
8318 *322 *743 0.004290
8319 *322 *776 0.003820
8320 *322 *678 0.004290
8321 *322 *711 0.003820
8322 *322 *613 0.004290
8323 *322 *646 0.003820
8324 *322 *548 0.004290
8325 *322 *581 0.003820
8326 *322 *483 0.004290
8327 *322 *516 0.003820
8328 *322 *418 0.004290
8329 *322 *451 0.003820
8330 *322 *353 0.004290
8331 *322 *386 0.003820
*END

*D_NET *323 1.331030
*CONN
*P *323 I
*CAP
8332 *323 *680 0.004290
8333 *323 *712 0.003820
8334 *323 *615 0.004290
8335 *323 *324 0.121100
8336 *323 *647 0.003820
8337 *323 *18 0.598340
8338 *323 *550 0.004290
8339 *323 *582 0.003820
8340 *323 *485 0.004290
8341 *323 *517 0.003820
8342 *323 *420 0.004290
8343 *323 *452 0.003820
8344 *323 *355 0.004290
8345 *323 *387 0.003820
8346 *323 *811 0.036840
8347 *323 *843 0.027190
8348 *323 *746 0.036840
8349 *323 *778 0.027380
8350 *323 *681 0.036840
8351 *323 *713 0.027380
8352 *323 *616 0.036840
8353 *323 *648 0.027380
8354 *323 *551 0.036840
8355 *323 *583 0.027380
8356 *323 *486 0.036840
8357 *323 *518 0.027380
8358 *323 *421 0.036840
8359 *323 *453 0.027380
8360 *323 *356 0.036840
8361 *323 *388 0.027380
8362 *323 *810 0.004290
8363 *323 *842 0.003820
8364 *323 *745 0.004290
8365 *323 *777 0.003820
8366 *323 *19 0.033140
*END

*D_NET *324 1.331030
*CONN
*P *324 I
*CAP
8367 *324 *811 0.004290
8368 *324 *843 0.003820
8369 *324 *746 0.004290
8370 *324 *778 0.003820
8371 *324 *681 0.004290
8372 *324 *713 0.003820
8373 *324 *616 0.004290
8374 *324 *648 0.003820
8375 *324 *551 0.004290
8376 *324 *583 0.003820
8377 *324 *486 0.004290
8378 *324 *518 0.003820
8379 *324 *421 0.004290
8380 *324 *453 0.003820
8381 *324 *356 0.004290
8382 *324 *388 0.003820
8383 *324 *812 0.036840
8384 *324 *844 0.027190
8385 *324 *747 0.036840
8386 *324 *779 0.027380
8387 *324 *682 0.036840
8388 *324 *714 0.027380
8389 *324 *617 0.036840
8390 *324 *649 0.027380
8391 *324 *552 0.036840
8392 *324 *584 0.027380
8393 *324 *487 0.036840
8394 *324 *519 0.027380
8395 *324 *422 0.036840
8396 *324 *454 0.027380
8397 *324 *357 0.036840
8398 *324 *20 0.033140
8399 *324 *389 0.027380
8400 *324 *325 0.121100
8401 *324 *19 0.598340
*END

*D_NET *325 1.331030
*CONN
*P *325 I
*CAP
8402 *325 *520 0.027380
8403 *325 *423 0.036840
8404 *325 *455 0.027380
8405 *325 *358 0.036840
8406 *325 *390 0.027380
8407 *325 *812 0.004290
8408 *325 *844 0.003820
8409 *325 *747 0.004290
8410 *325 *779 0.003820
8411 *325 *682 0.004290
8412 *325 *714 0.003820
8413 *325 *617 0.004290
8414 *325 *649 0.003820
8415 *325 *552 0.004290
8416 *325 *584 0.003820
8417 *325 *487 0.004290
8418 *325 *21 0.033140
8419 *325 *519 0.003820
8420 *325 *422 0.004290
8421 *325 *454 0.003820
8422 *325 *357 0.004290
8423 *325 *326 0.121100
8424 *325 *20 0.598340
8425 *325 *389 0.003820
8426 *325 *813 0.036840
8427 *325 *845 0.027190
8428 *325 *748 0.036840
8429 *325 *780 0.027380
8430 *325 *683 0.036840
8431 *325 *715 0.027380
8432 *325 *618 0.036840
8433 *325 *650 0.027380
8434 *325 *553 0.036840
8435 *325 *585 0.027380
8436 *325 *488 0.036840
*END

*D_NET *326 1.331030
*CONN
*P *326 I
*CAP
8437 *326 *390 0.003820
8438 *326 *814 0.036840
8439 *326 *847 0.027190
8440 *326 *749 0.036840
8441 *326 *782 0.027380
8442 *326 *684 0.036840
8443 *326 *717 0.027380
8444 *326 *619 0.036840
8445 *326 *652 0.027380
8446 *326 *554 0.036840
8447 *326 *587 0.027380
8448 *326 *489 0.036840
8449 *326 *522 0.027380
8450 *326 *424 0.036840
8451 *326 *457 0.027380
8452 *326 *359 0.036840
8453 *326 *392 0.027380
8454 *326 *22 0.033140
8455 *326 *328 0.121100
8456 *326 *21 0.598340
8457 *326 *813 0.004290
8458 *326 *845 0.003820
8459 *326 *748 0.004290
8460 *326 *780 0.003820
8461 *326 *683 0.004290
8462 *326 *715 0.003820
8463 *326 *618 0.004290
8464 *326 *650 0.003820
8465 *326 *553 0.004290
8466 *326 *585 0.003820
8467 *326 *488 0.004290
8468 *326 *520 0.003820
8469 *326 *423 0.004290
8470 *326 *455 0.003820
8471 *326 *358 0.004290
*END

*D_NET *328 1.331030
*CONN
*P *328 I
*CAP
8472 *328 *782 0.003820
8473 *328 *684 0.004290
8474 *328 *717 0.003820
8475 *328 *619 0.004290
8476 *328 *652 0.003820
8477 *328 *554 0.004290
8478 *328 *587 0.003820
8479 *328 *489 0.004290
8480 *328 *522 0.003820
8481 *328 *424 0.004290
8482 *328 *457 0.003820
8483 *328 *359 0.004290
8484 *328 *392 0.003820
8485 *328 *815 0.036840
8486 *328 *848 0.027190
8487 *328 *750 0.036840
8488 *328 *24 0.033140
8489 *328 *783 0.027380
8490 *328 *685 0.036840
8491 *328 *718 0.027380
8492 *328 *22 0.598340
8493 *328 *620 0.036840
8494 *328 *653 0.027380
8495 *328 *555 0.036840
8496 *328 *588 0.027380
8497 *328 *490 0.036840
8498 *328 *523 0.027380
8499 *328 *329 0.121100
8500 *328 *425 0.036840
8501 *328 *458 0.027380
8502 *328 *360 0.036840
8503 *328 *393 0.027380
8504 *328 *814 0.004290
8505 *328 *847 0.003820
8506 *328 *749 0.004290
*END

*D_NET *329 1.209920
*CONN
*P *329 I
*CAP
8507 *329 *524 0.027380
8508 *329 *426 0.036840
8509 *329 *459 0.027380
8510 *329 *361 0.036840
8511 *329 *394 0.027380
8512 *329 *815 0.004290
8513 *329 *848 0.003820
8514 *329 *750 0.004290
8515 *329 *24 0.598330
8516 *329 *783 0.003820
8517 *329 *685 0.004290
8518 *329 *25 0.033140
8519 *329 *718 0.003820
8520 *329 *620 0.004290
8521 *329 *653 0.003820
8522 *329 *555 0.004290
8523 *329 *588 0.003820
8524 *329 *490 0.004290
8525 *329 *523 0.003820
8526 *329 *425 0.004290
8527 *329 *458 0.003820
8528 *329 *360 0.004290
8529 *329 *393 0.003820
8530 *329 *816 0.036840
8531 *329 *849 0.027190
8532 *329 *751 0.036840
8533 *329 *784 0.027380
8534 *329 *686 0.036840
8535 *329 *719 0.027380
8536 *329 *621 0.036840
8537 *329 *654 0.027380
8538 *329 *556 0.036840
8539 *329 *589 0.027380
8540 *329 *491 0.036840
*END

*D_NET *1 1.530410
*CONN
*P *1 I
*CAP
8541 *1 *668 0.005390
8542 *1 *603 0.005390
8543 *1 *538 0.005390
8544 *1 *473 0.005390
8545 *1 *408 0.005390
8546 *1 *343 0.005390
8547 *1 *819 0.114070
8548 *1 *824 0.065490
8549 *1 *754 0.107620
8550 *1 *759 0.065390
8551 *1 *689 0.107590
8552 *1 *694 0.065360
8553 *1 *624 0.107570
8554 *1 *629 0.065360
8555 *1 *559 0.107570
8556 *1 *564 0.065360
8557 *1 *494 0.107570
8558 *1 *499 0.065360
8559 *1 *429 0.107570
8560 *1 *434 0.065360
8561 *1 *364 0.107570
8562 *1 *369 0.064700
8563 *1 *798 0.005390
8564 *1 *12 0.097780
8565 *1 *733 0.005390
*END

*D_NET *12 1.530410
*CONN
*P *12 I
*CAP
8566 *12 *419 0.005390
8567 *12 *354 0.005390
8568 *12 *798 0.114070
8569 *12 *835 0.065490
8570 *12 *733 0.107620
8571 *12 *770 0.065390
8572 *12 *668 0.107590
8573 *12 *705 0.065360
8574 *12 *603 0.107570
8575 *12 *640 0.065360
8576 *12 *538 0.107570
8577 *12 *575 0.065360
8578 *12 *473 0.107570
8579 *12 *510 0.065360
8580 *12 *408 0.107570
8581 *12 *445 0.065360
8582 *12 *343 0.107570
8583 *12 *380 0.064700
8584 *12 *809 0.005390
8585 *12 *744 0.005390
8586 *12 *679 0.005390
8587 *12 *614 0.005390
8588 *12 *23 0.097780
8589 *12 *549 0.005390
8590 *12 *484 0.005390
*END

*D_NET *23 1.530410
*CONN
*P *23 I
*CAP
8591 *23 *809 0.114070
8592 *23 *846 0.065490
8593 *23 *744 0.107620
8594 *23 *781 0.065390
8595 *23 *679 0.107590
8596 *23 *716 0.065360
8597 *23 *614 0.107570
8598 *23 *651 0.065360
8599 *23 *549 0.107570
8600 *23 *586 0.065360
8601 *23 *484 0.107570
8602 *23 *521 0.065360
8603 *23 *419 0.107570
8604 *23 *456 0.065360
8605 *23 *354 0.107570
8606 *23 *391 0.064700
8607 *23 *817 0.005390
8608 *23 *752 0.005390
8609 *23 *687 0.005390
8610 *23 *622 0.005390
8611 *23 *557 0.005390
8612 *23 *492 0.005390
8613 *23 *427 0.005390
8614 *23 *26 0.097780
8615 *23 *362 0.005390
*END

*D_NET *26 1.530410
*CONN
*P *26 I
*CAP
8616 *26 *817 0.114070
8617 *26 *850 0.065490
8618 *26 *752 0.107620
8619 *26 *785 0.065390
8620 *26 *687 0.107590
8621 *26 *720 0.065360
8622 *26 *622 0.107570
8623 *26 *655 0.065360
8624 *26 *557 0.107570
8625 *26 *590 0.065360
8626 *26 *492 0.107570
8627 *26 *525 0.065360
8628 *26 *427 0.107570
8629 *26 *460 0.065360
8630 *26 *362 0.107570
8631 *26 *395 0.064700
8632 *26 *818 0.005390
8633 *26 *753 0.005390
8634 *26 *688 0.005390
8635 *26 *623 0.005390
8636 *26 *558 0.005390
8637 *26 *493 0.005390
8638 *26 *428 0.005390
8639 *26 *363 0.005390
8640 *26 *27 0.097780
*END

*D_NET *27 1.530410
*CONN
*P *27 I
*CAP
8641 *27 *558 0.107570
8642 *27 *591 0.065360
8643 *27 *493 0.107570
8644 *27 *526 0.065360
8645 *27 *428 0.107570
8646 *27 *461 0.065360
8647 *27 *363 0.107570
8648 *27 *396 0.064700
8649 *27 *820 0.005390
8650 *27 *755 0.005390
8651 *27 *690 0.005390
8652 *27 *625 0.005390
8653 *27 *560 0.005390
8654 *27 *495 0.005390
8655 *27 *430 0.005390
8656 *27 *365 0.005390
8657 *27 *28 0.097780
8658 *27 *818 0.114070
8659 *27 *851 0.065490
8660 *27 *753 0.107620
8661 *27 *786 0.065390
8662 *27 *688 0.107590
8663 *27 *721 0.065360
8664 *27 *623 0.107570
8665 *27 *656 0.065360
*END

*D_NET *28 1.530410
*CONN
*P *28 I
*CAP
8666 *28 *756 0.005390
8667 *28 *691 0.005390
8668 *28 *626 0.005390
8669 *28 *561 0.005390
8670 *28 *496 0.005390
8671 *28 *431 0.005390
8672 *28 *366 0.005390
8673 *28 *820 0.114070
8674 *28 *29 0.097780
8675 *28 *852 0.065490
8676 *28 *755 0.107620
8677 *28 *787 0.065390
8678 *28 *690 0.107590
8679 *28 *722 0.065360
8680 *28 *625 0.107570
8681 *28 *657 0.065360
8682 *28 *560 0.107570
8683 *28 *592 0.065360
8684 *28 *495 0.107570
8685 *28 *527 0.065360
8686 *28 *430 0.107570
8687 *28 *462 0.065360
8688 *28 *365 0.107570
8689 *28 *397 0.064700
8690 *28 *821 0.005390
*END

*D_NET *29 1.530410
*CONN
*P *29 I
*CAP
8691 *29 *497 0.005390
8692 *29 *432 0.005390
8693 *29 *367 0.005390
8694 *29 *821 0.114070
8695 *29 *853 0.065490
8696 *29 *756 0.107620
8697 *29 *788 0.065390
8698 *29 *691 0.107590
8699 *29 *723 0.065360
8700 *29 *30 0.097780
8701 *29 *626 0.107570
8702 *29 *658 0.065360
8703 *29 *561 0.107570
8704 *29 *593 0.065360
8705 *29 *496 0.107570
8706 *29 *528 0.065360
8707 *29 *431 0.107570
8708 *29 *463 0.065360
8709 *29 *366 0.107570
8710 *29 *398 0.064700
8711 *29 *822 0.005390
8712 *29 *757 0.005390
8713 *29 *692 0.005390
8714 *29 *627 0.005390
8715 *29 *562 0.005390
*END

*D_NET *30 1.530410
*CONN
*P *30 I
*CAP
8716 *30 *822 0.114070
8717 *30 *854 0.065490
8718 *30 *757 0.107620
8719 *30 *789 0.065390
8720 *30 *692 0.107590
8721 *30 *724 0.065360
8722 *30 *627 0.107570
8723 *30 *659 0.065360
8724 *30 *562 0.107570
8725 *30 *594 0.065360
8726 *30 *497 0.107570
8727 *30 *529 0.065360
8728 *30 *31 0.097780
8729 *30 *432 0.107570
8730 *30 *464 0.065360
8731 *30 *367 0.107570
8732 *30 *399 0.064700
8733 *30 *823 0.005390
8734 *30 *758 0.005390
8735 *30 *693 0.005390
8736 *30 *628 0.005390
8737 *30 *563 0.005390
8738 *30 *498 0.005390
8739 *30 *433 0.005390
8740 *30 *368 0.005390
*END

*D_NET *31 1.530410
*CONN
*P *31 I
*CAP
8741 *31 *823 0.114070
8742 *31 *855 0.065490
8743 *31 *758 0.107620
8744 *31 *790 0.065390
8745 *31 *693 0.107590
8746 *31 *725 0.065360
8747 *31 *628 0.107570
8748 *31 *660 0.065360
8749 *31 *563 0.107570
8750 *31 *595 0.065360
8751 *31 *498 0.107570
8752 *31 *530 0.065360
8753 *31 *433 0.107570
8754 *31 *465 0.065360
8755 *31 *368 0.107570
8756 *31 *400 0.064700
8757 *31 *792 0.005390
8758 *31 *32 0.097780
8759 *31 *727 0.005390
8760 *31 *662 0.005390
8761 *31 *597 0.005390
8762 *31 *532 0.005390
8763 *31 *467 0.005390
8764 *31 *402 0.005390
8765 *31 *337 0.005390
*END

*D_NET *32 1.530410
*CONN
*P *32 I
*CAP
8766 *32 *630 0.065360
8767 *32 *532 0.107570
8768 *32 *565 0.065360
8769 *32 *467 0.107570
8770 *32 *500 0.065360
8771 *32 *402 0.107570
8772 *32 *435 0.065360
8773 *32 *337 0.107570
8774 *32 *370 0.064700
8775 *32 *793 0.005390
8776 *32 *728 0.005390
8777 *32 *663 0.005390
8778 *32 *598 0.005390
8779 *32 *2 0.097780
8780 *32 *533 0.005390
8781 *32 *468 0.005390
8782 *32 *403 0.005390
8783 *32 *338 0.005390
8784 *32 *792 0.114070
8785 *32 *825 0.065490
8786 *32 *727 0.107620
8787 *32 *760 0.065390
8788 *32 *662 0.107590
8789 *32 *695 0.065360
8790 *32 *597 0.107570
*END

*D_NET *2 1.530410
*CONN
*P *2 I
*CAP
8791 *2 *794 0.005390
8792 *2 *729 0.005390
8793 *2 *664 0.005390
8794 *2 *599 0.005390
8795 *2 *534 0.005390
8796 *2 *469 0.005390
8797 *2 *404 0.005390
8798 *2 *3 0.097780
8799 *2 *339 0.005390
8800 *2 *793 0.114070
8801 *2 *826 0.065490
8802 *2 *728 0.107620
8803 *2 *761 0.065390
8804 *2 *663 0.107590
8805 *2 *696 0.065360
8806 *2 *598 0.107570
8807 *2 *631 0.065360
8808 *2 *533 0.107570
8809 *2 *566 0.065360
8810 *2 *468 0.107570
8811 *2 *501 0.065360
8812 *2 *403 0.107570
8813 *2 *436 0.065360
8814 *2 *338 0.107570
8815 *2 *371 0.064700
*END

*D_NET *3 1.530410
*CONN
*P *3 I
*CAP
8816 *3 *470 0.005390
8817 *3 *405 0.005390
8818 *3 *340 0.005390
8819 *3 *4 0.097780
8820 *3 *794 0.114070
8821 *3 *827 0.065490
8822 *3 *729 0.107620
8823 *3 *762 0.065390
8824 *3 *664 0.107590
8825 *3 *697 0.065360
8826 *3 *599 0.107570
8827 *3 *632 0.065360
8828 *3 *534 0.107570
8829 *3 *567 0.065360
8830 *3 *469 0.107570
8831 *3 *502 0.065360
8832 *3 *404 0.107570
8833 *3 *437 0.065360
8834 *3 *339 0.107570
8835 *3 *372 0.064700
8836 *3 *795 0.005390
8837 *3 *730 0.005390
8838 *3 *665 0.005390
8839 *3 *600 0.005390
8840 *3 *535 0.005390
*END

*D_NET *4 1.530410
*CONN
*P *4 I
*CAP
8841 *4 *536 0.005390
8842 *4 *471 0.005390
8843 *4 *5 0.097780
8844 *4 *406 0.005390
8845 *4 *341 0.005390
8846 *4 *795 0.114070
8847 *4 *828 0.065490
8848 *4 *730 0.107620
8849 *4 *763 0.065390
8850 *4 *665 0.107590
8851 *4 *698 0.065360
8852 *4 *600 0.107570
8853 *4 *633 0.065360
8854 *4 *535 0.107570
8855 *4 *568 0.065360
8856 *4 *470 0.107570
8857 *4 *503 0.065360
8858 *4 *405 0.107570
8859 *4 *438 0.065360
8860 *4 *340 0.107570
8861 *4 *373 0.064700
8862 *4 *796 0.005390
8863 *4 *731 0.005390
8864 *4 *666 0.005390
8865 *4 *601 0.005390
*END

*D_NET *5 1.530410
*CONN
*P *5 I
*CAP
8866 *5 *504 0.065360
8867 *5 *406 0.107570
8868 *5 *439 0.065360
8869 *5 *341 0.107570
8870 *5 *374 0.064700
8871 *5 *797 0.005390
8872 *5 *732 0.005390
8873 *5 *667 0.005390
8874 *5 *602 0.005390
8875 *5 *537 0.005390
8876 *5 *472 0.005390
8877 *5 *407 0.005390
8878 *5 *342 0.005390
8879 *5 *796 0.114070
8880 *5 *829 0.065490
8881 *5 *731 0.107620
8882 *5 *764 0.065390
8883 *5 *666 0.107590
8884 *5 *699 0.065360
8885 *5 *601 0.107570
8886 *5 *6 0.097780
8887 *5 *634 0.065360
8888 *5 *536 0.107570
8889 *5 *569 0.065360
8890 *5 *471 0.107570
*END

*D_NET *6 1.530410
*CONN
*P *6 I
*CAP
8891 *6 *797 0.114070
8892 *6 *830 0.065490
8893 *6 *732 0.107620
8894 *6 *765 0.065390
8895 *6 *667 0.107590
8896 *6 *700 0.065360
8897 *6 *602 0.107570
8898 *6 *635 0.065360
8899 *6 *537 0.107570
8900 *6 *570 0.065360
8901 *6 *472 0.107570
8902 *6 *505 0.065360
8903 *6 *407 0.107570
8904 *6 *440 0.065360
8905 *6 *342 0.107570
8906 *6 *375 0.064700
8907 *6 *799 0.005390
8908 *6 *734 0.005390
8909 *6 *669 0.005390
8910 *6 *604 0.005390
8911 *6 *539 0.005390
8912 *6 *474 0.005390
8913 *6 *409 0.005390
8914 *6 *344 0.005390
8915 *6 *7 0.097780
*END

*D_NET *7 1.530410
*CONN
*P *7 I
*CAP
8916 *7 *799 0.114070
8917 *7 *831 0.065490
8918 *7 *734 0.107620
8919 *7 *766 0.065390
8920 *7 *669 0.107590
8921 *7 *701 0.065360
8922 *7 *604 0.107570
8923 *7 *636 0.065360
8924 *7 *539 0.107570
8925 *7 *571 0.065360
8926 *7 *474 0.107570
8927 *7 *506 0.065360
8928 *7 *409 0.107570
8929 *7 *441 0.065360
8930 *7 *8 0.097780
8931 *7 *344 0.107570
8932 *7 *376 0.064700
8933 *7 *800 0.005390
8934 *7 *735 0.005390
8935 *7 *670 0.005390
8936 *7 *605 0.005390
8937 *7 *540 0.005390
8938 *7 *475 0.005390
8939 *7 *410 0.005390
8940 *7 *345 0.005390
*END

*D_NET *8 1.530410
*CONN
*P *8 I
*CAP
8941 *8 *606 0.005390
8942 *8 *541 0.005390
8943 *8 *476 0.005390
8944 *8 *411 0.005390
8945 *8 *346 0.005390
8946 *8 *9 0.097780
8947 *8 *800 0.114070
8948 *8 *832 0.065490
8949 *8 *735 0.107620
8950 *8 *767 0.065390
8951 *8 *670 0.107590
8952 *8 *702 0.065360
8953 *8 *605 0.107570
8954 *8 *637 0.065360
8955 *8 *540 0.107570
8956 *8 *572 0.065360
8957 *8 *475 0.107570
8958 *8 *507 0.065360
8959 *8 *410 0.107570
8960 *8 *442 0.065360
8961 *8 *345 0.107570
8962 *8 *377 0.064700
8963 *8 *801 0.005390
8964 *8 *736 0.005390
8965 *8 *671 0.005390
*END

*D_NET *9 1.530410
*CONN
*P *9 I
*CAP
8966 *9 *476 0.107570
8967 *9 *508 0.065360
8968 *9 *411 0.107570
8969 *9 *443 0.065360
8970 *9 *346 0.107570
8971 *9 *378 0.064700
8972 *9 *802 0.005390
8973 *9 *737 0.005390
8974 *9 *672 0.005390
8975 *9 *10 0.097780
8976 *9 *607 0.005390
8977 *9 *542 0.005390
8978 *9 *477 0.005390
8979 *9 *412 0.005390
8980 *9 *347 0.005390
8981 *9 *801 0.114070
8982 *9 *833 0.065490
8983 *9 *736 0.107620
8984 *9 *768 0.065390
8985 *9 *671 0.107590
8986 *9 *703 0.065360
8987 *9 *606 0.107570
8988 *9 *638 0.065360
8989 *9 *541 0.107570
8990 *9 *573 0.065360
*END

*D_NET *10 1.530410
*CONN
*P *10 I
*CAP
8991 *10 *802 0.114070
8992 *10 *834 0.065490
8993 *10 *11 0.097780
8994 *10 *737 0.107620
8995 *10 *769 0.065390
8996 *10 *672 0.107590
8997 *10 *704 0.065360
8998 *10 *607 0.107570
8999 *10 *639 0.065360
9000 *10 *542 0.107570
9001 *10 *574 0.065360
9002 *10 *477 0.107570
9003 *10 *509 0.065360
9004 *10 *412 0.107570
9005 *10 *444 0.065360
9006 *10 *347 0.107570
9007 *10 *379 0.064700
9008 *10 *803 0.005390
9009 *10 *738 0.005390
9010 *10 *673 0.005390
9011 *10 *608 0.005390
9012 *10 *543 0.005390
9013 *10 *478 0.005390
9014 *10 *413 0.005390
9015 *10 *348 0.005390
*END

*D_NET *11 1.530410
*CONN
*P *11 I
*CAP
9016 *11 *803 0.114070
9017 *11 *836 0.065490
9018 *11 *738 0.107620
9019 *11 *771 0.065390
9020 *11 *673 0.107590
9021 *11 *706 0.065360
9022 *11 *608 0.107570
9023 *11 *641 0.065360
9024 *11 *543 0.107570
9025 *11 *576 0.065360
9026 *11 *478 0.107570
9027 *11 *511 0.065360
9028 *11 *413 0.107570
9029 *11 *446 0.065360
9030 *11 *348 0.107570
9031 *11 *381 0.064700
9032 *11 *804 0.005390
9033 *11 *739 0.005390
9034 *11 *674 0.005390
9035 *11 *609 0.005390
9036 *11 *544 0.005390
9037 *11 *479 0.005390
9038 *11 *414 0.005390
9039 *11 *13 0.097780
9040 *11 *349 0.005390
*END

*D_NET *13 1.530410
*CONN
*P *13 I
*CAP
9041 *13 *610 0.005390
9042 *13 *545 0.005390
9043 *13 *480 0.005390
9044 *13 *415 0.005390
9045 *13 *350 0.005390
9046 *13 *804 0.114070
9047 *13 *837 0.065490
9048 *13 *739 0.107620
9049 *13 *772 0.065390
9050 *13 *674 0.107590
9051 *13 *707 0.065360
9052 *13 *609 0.107570
9053 *13 *642 0.065360
9054 *13 *544 0.107570
9055 *13 *14 0.097780
9056 *13 *577 0.065360
9057 *13 *479 0.107570
9058 *13 *512 0.065360
9059 *13 *414 0.107570
9060 *13 *447 0.065360
9061 *13 *349 0.107570
9062 *13 *382 0.064700
9063 *13 *805 0.005390
9064 *13 *740 0.005390
9065 *13 *675 0.005390
*END

*D_NET *14 1.530410
*CONN
*P *14 I
*CAP
9066 *14 *578 0.065360
9067 *14 *480 0.107570
9068 *14 *513 0.065360
9069 *14 *415 0.107570
9070 *14 *448 0.065360
9071 *14 *350 0.107570
9072 *14 *383 0.064700
9073 *14 *806 0.005390
9074 *14 *741 0.005390
9075 *14 *676 0.005390
9076 *14 *611 0.005390
9077 *14 *546 0.005390
9078 *14 *481 0.005390
9079 *14 *416 0.005390
9080 *14 *351 0.005390
9081 *14 *15 0.097780
9082 *14 *805 0.114070
9083 *14 *838 0.065490
9084 *14 *740 0.107620
9085 *14 *773 0.065390
9086 *14 *675 0.107590
9087 *14 *708 0.065360
9088 *14 *610 0.107570
9089 *14 *643 0.065360
9090 *14 *545 0.107570
*END

*D_NET *15 1.530410
*CONN
*P *15 I
*CAP
9091 *15 *806 0.114070
9092 *15 *839 0.065490
9093 *15 *741 0.107620
9094 *15 *774 0.065390
9095 *15 *676 0.107590
9096 *15 *709 0.065360
9097 *15 *611 0.107570
9098 *15 *644 0.065360
9099 *15 *546 0.107570
9100 *15 *579 0.065360
9101 *15 *481 0.107570
9102 *15 *514 0.065360
9103 *15 *416 0.107570
9104 *15 *449 0.065360
9105 *15 *351 0.107570
9106 *15 *384 0.064700
9107 *15 *807 0.005390
9108 *15 *16 0.097780
9109 *15 *742 0.005390
9110 *15 *677 0.005390
9111 *15 *612 0.005390
9112 *15 *547 0.005390
9113 *15 *482 0.005390
9114 *15 *417 0.005390
9115 *15 *352 0.005390
*END

*D_NET *16 1.530410
*CONN
*P *16 I
*CAP
9116 *16 *17 0.097780
9117 *16 *807 0.114070
9118 *16 *840 0.065490
9119 *16 *742 0.107620
9120 *16 *775 0.065390
9121 *16 *677 0.107590
9122 *16 *710 0.065360
9123 *16 *612 0.107570
9124 *16 *645 0.065360
9125 *16 *547 0.107570
9126 *16 *580 0.065360
9127 *16 *482 0.107570
9128 *16 *515 0.065360
9129 *16 *417 0.107570
9130 *16 *450 0.065360
9131 *16 *352 0.107570
9132 *16 *385 0.064700
9133 *16 *808 0.005390
9134 *16 *743 0.005390
9135 *16 *678 0.005390
9136 *16 *613 0.005390
9137 *16 *548 0.005390
9138 *16 *483 0.005390
9139 *16 *418 0.005390
9140 *16 *353 0.005390
*END

*D_NET *17 1.530410
*CONN
*P *17 I
*CAP
9141 *17 *680 0.005390
9142 *17 *615 0.005390
9143 *17 *18 0.097780
9144 *17 *550 0.005390
9145 *17 *485 0.005390
9146 *17 *420 0.005390
9147 *17 *355 0.005390
9148 *17 *808 0.114070
9149 *17 *841 0.065490
9150 *17 *743 0.107620
9151 *17 *776 0.065390
9152 *17 *678 0.107590
9153 *17 *711 0.065360
9154 *17 *613 0.107570
9155 *17 *646 0.065360
9156 *17 *548 0.107570
9157 *17 *581 0.065360
9158 *17 *483 0.107570
9159 *17 *516 0.065360
9160 *17 *418 0.107570
9161 *17 *451 0.065360
9162 *17 *353 0.107570
9163 *17 *386 0.064700
9164 *17 *810 0.005390
9165 *17 *745 0.005390
*END

*D_NET *18 1.530410
*CONN
*P *18 I
*CAP
9166 *18 *550 0.107570
9167 *18 *582 0.065360
9168 *18 *485 0.107570
9169 *18 *517 0.065360
9170 *18 *420 0.107570
9171 *18 *452 0.065360
9172 *18 *355 0.107570
9173 *18 *387 0.064700
9174 *18 *811 0.005390
9175 *18 *746 0.005390
9176 *18 *681 0.005390
9177 *18 *616 0.005390
9178 *18 *551 0.005390
9179 *18 *486 0.005390
9180 *18 *421 0.005390
9181 *18 *356 0.005390
9182 *18 *810 0.114070
9183 *18 *842 0.065490
9184 *18 *745 0.107620
9185 *18 *777 0.065390
9186 *18 *19 0.097780
9187 *18 *680 0.107590
9188 *18 *712 0.065360
9189 *18 *615 0.107570
9190 *18 *647 0.065360
*END

*D_NET *19 1.530410
*CONN
*P *19 I
*CAP
9191 *19 *811 0.114070
9192 *19 *843 0.065490
9193 *19 *746 0.107620
9194 *19 *778 0.065390
9195 *19 *681 0.107590
9196 *19 *713 0.065360
9197 *19 *616 0.107570
9198 *19 *648 0.065360
9199 *19 *551 0.107570
9200 *19 *583 0.065360
9201 *19 *486 0.107570
9202 *19 *518 0.065360
9203 *19 *421 0.107570
9204 *19 *453 0.065360
9205 *19 *356 0.107570
9206 *19 *388 0.064700
9207 *19 *812 0.005390
9208 *19 *747 0.005390
9209 *19 *682 0.005390
9210 *19 *617 0.005390
9211 *19 *552 0.005390
9212 *19 *487 0.005390
9213 *19 *422 0.005390
9214 *19 *357 0.005390
9215 *19 *20 0.097780
*END

*D_NET *20 1.530410
*CONN
*P *20 I
*CAP
9216 *20 *812 0.114070
9217 *20 *844 0.065490
9218 *20 *747 0.107620
9219 *20 *779 0.065390
9220 *20 *682 0.107590
9221 *20 *714 0.065360
9222 *20 *617 0.107570
9223 *20 *649 0.065360
9224 *20 *552 0.107570
9225 *20 *584 0.065360
9226 *20 *487 0.107570
9227 *20 *21 0.097780
9228 *20 *519 0.065360
9229 *20 *422 0.107570
9230 *20 *454 0.065360
9231 *20 *357 0.107570
9232 *20 *389 0.064700
9233 *20 *813 0.005390
9234 *20 *748 0.005390
9235 *20 *683 0.005390
9236 *20 *618 0.005390
9237 *20 *553 0.005390
9238 *20 *488 0.005390
9239 *20 *423 0.005390
9240 *20 *358 0.005390
*END

*D_NET *21 1.530410
*CONN
*P *21 I
*CAP
9241 *21 *684 0.005390
9242 *21 *619 0.005390
9243 *21 *554 0.005390
9244 *21 *489 0.005390
9245 *21 *424 0.005390
9246 *21 *359 0.005390
9247 *21 *22 0.097780
9248 *21 *813 0.114070
9249 *21 *845 0.065490
9250 *21 *748 0.107620
9251 *21 *780 0.065390
9252 *21 *683 0.107590
9253 *21 *715 0.065360
9254 *21 *618 0.107570
9255 *21 *650 0.065360
9256 *21 *553 0.107570
9257 *21 *585 0.065360
9258 *21 *488 0.107570
9259 *21 *520 0.065360
9260 *21 *423 0.107570
9261 *21 *455 0.065360
9262 *21 *358 0.107570
9263 *21 *390 0.064700
9264 *21 *814 0.005390
9265 *21 *749 0.005390
*END

*D_NET *22 1.530410
*CONN
*P *22 I
*CAP
9266 *22 *619 0.107570
9267 *22 *652 0.065360
9268 *22 *554 0.107570
9269 *22 *587 0.065360
9270 *22 *489 0.107570
9271 *22 *522 0.065360
9272 *22 *424 0.107570
9273 *22 *457 0.065360
9274 *22 *359 0.107570
9275 *22 *392 0.064700
9276 *22 *815 0.005390
9277 *22 *750 0.005390
9278 *22 *24 0.097780
9279 *22 *685 0.005390
9280 *22 *620 0.005390
9281 *22 *555 0.005390
9282 *22 *490 0.005390
9283 *22 *425 0.005390
9284 *22 *360 0.005390
9285 *22 *814 0.114070
9286 *22 *847 0.065490
9287 *22 *749 0.107620
9288 *22 *782 0.065390
9289 *22 *684 0.107590
9290 *22 *717 0.065360
*END

*D_NET *24 1.530410
*CONN
*P *24 I
*CAP
9291 *24 *815 0.114070
9292 *24 *848 0.065490
9293 *24 *750 0.107620
9294 *24 *783 0.065390
9295 *24 *685 0.107590
9296 *24 *25 0.097780
9297 *24 *718 0.065360
9298 *24 *620 0.107570
9299 *24 *653 0.065360
9300 *24 *555 0.107570
9301 *24 *588 0.065360
9302 *24 *490 0.107570
9303 *24 *523 0.065360
9304 *24 *425 0.107570
9305 *24 *458 0.065360
9306 *24 *360 0.107570
9307 *24 *393 0.064700
9308 *24 *816 0.005390
9309 *24 *751 0.005390
9310 *24 *686 0.005390
9311 *24 *621 0.005390
9312 *24 *556 0.005390
9313 *24 *491 0.005390
9314 *24 *426 0.005390
9315 *24 *361 0.005390
*END

*D_NET *25 1.585400
*CONN
*P *25 I
*CAP
9316 *25 *394 0.064700
9317 *25 *816 0.114070
9318 *25 *856 0.024440
9319 *25 *849 0.065490
9320 *25 *751 0.107620
9321 *25 *791 0.024510
9322 *25 *784 0.065390
9323 *25 *686 0.107590
9324 *25 *726 0.024490
9325 *25 *719 0.065360
9326 *25 *621 0.107570
9327 *25 *661 0.024490
9328 *25 *654 0.065360
9329 *25 *556 0.107570
9330 *25 *596 0.024490
9331 *25 *589 0.065360
9332 *25 *491 0.107570
9333 *25 *531 0.024490
9334 *25 *524 0.065360
9335 *25 *426 0.107570
9336 *25 *466 0.024490
9337 *25 *459 0.065360
9338 *25 *361 0.107570
9339 *25 *401 0.024490
*END

